<?xml version="1.0"?>
<VTKFile type="UnstructuredGrid" version="0.1" byte_order="LittleEndian" compressor="vtkZLibDataCompressor">
<UnstructuredGrid>
<Piece NumberOfPoints="218" NumberOfCells="192">
<PointData>
<DataArray type="Float64" Name="displacement" NumberOfComponents="3" format="ascii" >
0.0686945568452 -0.00915576255307  0.
0.0396930008374 -0.0625409910561  0.
0.0745536244382 -0.0126863279673  0.
0.074879272323 -0.0173931549261  0.
0.0729511186489 -0.0225821472067  0.
0.069602528862 -0.0281066046495  0.
0.0652609680323 -0.0338846804409  0.
0.0602631427765 -0.0398219506109  0.
0.0549029525503 -0.0457998275969  0.
0.0494581019288 -0.0516724553929  0.
0.0442268594344 -0.0572767850406  0.
0.035567738036 -0.0925795635562  0.
0.0397559298607 -0.0676569381857  0.
0.0395258634448 -0.0721135966875  0.
0.0391756745324 -0.0760134559041  0.
0.0387614797196 -0.0794207840595  0.
0.0383115742187 -0.0823917319406  0.
0.037841331376 -0.0849801132869  0.
0.0373532619938 -0.0872288612555  0.
0.0368403287448 -0.0891839559695  0.
0.0362795544189 -0.0909189017054  0.
0.0480097158627 -0.0702310046227  0.
0.0366094826102 -0.0915175133073  0.
0.0378296917981 -0.0901425629929  0.
0.0391694668861 -0.0885027313125  0.
0.040536974776 -0.0866091493194  0.
0.0418633653428 -0.0844713172533  0.
0.0431573187058 -0.0820738830239  0.
0.0444329607454 -0.0794187512783  0.
0.0456807684942 -0.0765333760857  0.
0.0468802712189 -0.0734555664258  0.
0.0538364414521 -0.0677512465601  0.
0.0594991191664 -0.0646055385257  0.
0.0647024547354 -0.0606565393662  0.
0.0691565245113 -0.0557688676526  0.
0.0726378763635 -0.0498861870131  0.
0.0750109551422 -0.0430665229757  0.
0.0761253440852 -0.0354887967315  0.
0.0757508954302 -0.0274196506132  0.
0.0735538260763 -0.018980904623  0.
0.0758616137275 -0.0221943557516  0.
0.0760065694683 -0.0308638138293  0.
0.0750783827228 -0.0390492794618  0.
0.0731824037254 -0.0466264089224  0.
0.0703910532145 -0.0533862747145  0.
0.0667962809938 -0.059235046981  0.
0.0624611656134 -0.0641065211701  0.
0.0575468624848 -0.0680276829441  0.
0.052274539594 -0.071103832095  0.
0.0750338997161 -0.0265565959936  0.
0.0742894934931 -0.035097971261  0.
0.0727639921219 -0.0431381863228  0.
0.0704947530695 -0.0505170531225  0.
0.0675480141089 -0.0570751379116  0.
0.064009350381 -0.0627703465112  0.
0.0599155853716 -0.0675307771069  0.
0.0553788890353 -0.0713548895856  0.
0.0505705471907 -0.0743225499857  0.
0.0726163133676 -0.0314627249202  0.
0.0714473920133 -0.0397634992975  0.
0.0696196783352 -0.0475215792564  0.
0.0672009009043 -0.0545889207064  0.
0.0642600988282 -0.060847941874  0.
0.0608946107705 -0.0662940228276  0.
0.057136268962 -0.0708644691198  0.
0.0530525656804 -0.0745343765959  0.
0.0487682124759 -0.077360409042  0.
0.0690444087798 -0.0366939030218  0.
0.0677194014426 -0.044675517425  0.
0.0658160663818 -0.0520572791404  0.
0.0634281465484 -0.0587291726471  0.
0.0606369270176 -0.0646159284781  0.
0.0575438636462 -0.0697335207091  0.
0.0541951314229 -0.0740437165267  0.
0.0506247838948 -0.0775126422929  0.
0.0469089838806 -0.0801725044145  0.
0.0646385547085 -0.0421115129806  0.
0.0633324328739 -0.0496878294689  0.
0.0615245868608 -0.0566161770354  0.
0.059319465053 -0.0628282394781  0.
0.0568046206445 -0.0682869293661  0.
0.05407535461 -0.0730186344153  0.
0.0511842016646 -0.0770107505275  0.
0.0481571683604 -0.0802399754165  0.
0.045029677797 -0.0827194510334  0.
0.0596829806261 -0.0475881906939  0.
0.0585196209863 -0.0546698018233  0.
0.0569330910908 -0.0610773808178  0.
0.0550261135086 -0.0667790293191  0.
0.0528850192974 -0.0717681683397  0.
0.0505930404467 -0.0760799368341  0.
0.0481963225418 -0.0797207468918  0.
0.0457138474599 -0.0826834767094  0.
0.0431573229675 -0.0849776792266  0.
0.054444705445 -0.0529942790002  0.
0.0535110535008 -0.0594989730255  0.
0.0522287815763 -0.0653306850061  0.
0.0506911682249 -0.0704845808872  0.
0.0489785828782 -0.0749772965275  0.
0.0471604863784 -0.0788521864961  0.
0.0452725808147 -0.0821311903529  0.
0.0433213437355 -0.0848235788434  0.
0.0412955037882 -0.0869438436425  0.
0.0491871021551 -0.0581993306051  0.
0.0485353303446 -0.0640655124371  0.
0.0475942587633 -0.0692824772728  0.
0.0464529032783 -0.0738649711964  0.
0.0451839537811 -0.0778486558004  0.
0.0438426487652 -0.0812839872518  0.
0.0424537869638 -0.0842056316924  0.
0.0410140337984 -0.0866396162201  0.
0.0394910683238 -0.0886132204078  0.
0.0441933368548 -0.0630940950286  0.
0.0438146586395 -0.0682867157171  0.
0.0432002351134 -0.0728605224809  0.
0.0424421724285 -0.0768592098244  0.
0.041600387437 -0.0803326170778  0.
0.0407142490262 -0.083336272913  0.
0.0397981578551 -0.0859130516095  0.
0.0388448321564 -0.0881025976325  0.
0.0378171505502 -0.0899573979678  0.
0.0500328390803 -0.0635377028492  0.
0.0490612817924 -0.0669012407602  0.
0.0698873747136 -0.0147148693138  0.
0.0691808763537 -0.0122331668543  0.
0.0740462400691 -0.0217071419748  0.
0.0766249631186 -0.0282947266439  0.
0.0777584766028 -0.0347353549991  0.
0.0772521497854 -0.0408122199249  0.
0.0751706326874 -0.0462895445046  0.
0.0717172399429 -0.050986261163  0.
0.0671635894692 -0.0549084518681  0.
0.0617999057497 -0.0581888503459  0.
0.0559474031054 -0.0610152580642  0.
0.0549806281277 -0.0644278509561  0.
0.0607642492998 -0.0614428358727  0.
0.0660638594746 -0.0578212512932  0.
0.0705503328576 -0.0534050185238  0.
0.0739728749245 -0.0480919182159  0.
0.0761732559859 -0.0419057021813  0.
0.0770031526546 -0.0350422244542  0.
0.0763310597987 -0.0278020898803  0.
0.0739480670485 -0.0203518551833  0.
0.0 0.0  0.
0.0 0.0406489402645  0.
0.0 0.0174728267865  0.
0.0318324414405 0.024565321488  0.
0.0534729298173 0.00793617201067  0.
0.0424186982311 -0.00700309467513  0.
0.0619485839011 -0.00979624269811  0.
0.0375420020134 0.00943016815228  0.
0.0581598940593 -0.00126376346003  0.
0.0 0.0  0.
0.0 0.0  0.
0.0 0.0  0.
0.0 0.0  0.
0.0 0.0  0.
0.0 0.0  0.
0.0 0.0  0.
0.0 0.0  0.
0.0 0.0  0.
0.0 0.0  0.
0.0430695268325 -0.0542953439525  0.
0.0277468901355 -0.0349562794907  0.
0.0364127831384 -0.0316273110771  0.
0.0508352138885 -0.0509141259084  0.
0.0425961535272 -0.0301671824155  0.
0.0576211255134 -0.0482577359824  0.
0.0478773095055 -0.0288400101171  0.
0.0635292542806 -0.0456213338979  0.
0.0523125222364 -0.0273967236393  0.
0.0685060173375 -0.0425485071183  0.
0.0557221171656 -0.0256834791367  0.
0.0722398991867 -0.0388375126839  0.
0.0578018849053 -0.0235805025737  0.
0.0743515526303 -0.0343799336788  0.
0.0582517066609 -0.0211416710444  0.
0.0745393085229 -0.0293317508032  0.
0.0567174022595 -0.0182121901082  0.
0.0726252469848 -0.0237484144633  0.
0.0525001084709 -0.0143743681368  0.
0.0683520345698 -0.017306151787  0.
0.0 -0.0990595213398  0.
0.0 -0.011449863939  0.
0.0 -0.0223018339309  0.
0.0 -0.0325560752656  0.
0.0 -0.042222181713  0.
0.0 -0.051308385682  0.
0.0 -0.0598348098888  0.
0.0 -0.0678161939106  0.
0.0 -0.0752329995015  0.
0.0 -0.082064710038  0.
0.0 -0.0883035573565  0.
0.0 -0.0939628083452  0.
0.0214356153785 -0.0929564245299  0.
0.031654618829 -0.0937061116354  0.
0.0270445691559 -0.0418222264136  0.
0.0263816267966 -0.0482780570991  0.
0.0257823680402 -0.0543254625715  0.
0.0252207623819 -0.0599971382508  0.
0.0247072067662 -0.0652927122821  0.
0.0243045774617 -0.0701833167178  0.
0.023866974881 -0.074771663164  0.
0.023344439531 -0.079072742753  0.
0.0227659402505 -0.0830543840518  0.
0.0222008483504 -0.0866880265312  0.
0.0217502144606 -0.0899701016133  0.
0.0419064834576 -0.0591298190701  0.
0.040920644307 -0.0635734408959  0.
0.039945531829 -0.0677865061064  0.
0.0389629304067 -0.0717652482609  0.
0.0379903378752 -0.0754794322319  0.
0.0370510793213 -0.0788964029125  0.
0.0361338513527 -0.0820169721501  0.
0.0351400787743 -0.0848972219112  0.
0.0340725114494 -0.0875289177796  0.
0.033025916782 -0.089877210481  0.
0.0321218811373 -0.0919293974271  0.
</DataArray>
<DataArray type="Float64" Name="stresses" NumberOfComponents="4" format="ascii" >
-124860.519018 -74180.5422146 -98415.4524827 24554.1194899  
-68819.5765593 -69947.2720944 -67995.7558403 3513.99204018  
54577.6213905 69683.0946271 61796.5997289 35737.066186  
16061.3185341 18696.1056417 17116.2857537 25768.5595871  
22545.5991363 18129.1760212 19930.6398272 18650.7284978  
25098.464589 16598.4329059 20431.4797725 12539.0582958  
18870.2888069 8283.75479184 13305.4813634 8244.56015395  
6954.68528406 -4123.53436778 1387.26394897 5253.5855828  
-7308.41364255 -17295.9455355 -12056.1359972 3262.22464409  
-19842.0405261 -26899.4683953 -22903.3393715 2220.04909829  
-35966.3285959 -38329.0065121 -36404.7142029 2959.84722539  
-41266.8584065 -67795.9593133 -53440.7806827 -246.805290106  
-53645.1137067 -58171.2668437 -54790.0264697 2881.16491595  
-57890.9241336 -68274.9567721 -61821.2816438 859.44180983  
-62683.7763045 -75822.0410443 -67867.8505009 -648.14525827  
-62885.9934384 -77422.6888829 -68751.2543374 -1516.29716566  
-60321.384395 -75534.8416503 -66569.5507622 -1836.69555627  
-56243.3964942 -71819.8248889 -62750.9784777 -1734.65380298  
-51937.3273167 -67926.9092374 -58733.4759115 -1275.20623607  
-48445.0390759 -65294.4513663 -55732.3503167 -342.372014761  
-40489.4851861 -59745.6050406 -49115.1942111 1490.24636318  
-76495.5570982 -142780.770714 -107912.655965 689.178246407  
18658.9938975 -14299.4648139 2136.16925096 -1955.13101716  
10698.8840067 -29497.0459425 -9211.09934854 -3518.30730329  
6150.98244423 -40661.3123232 -16910.0616407 -4209.90080623  
146.640208972 -52988.2305655 -25892.213054 -4108.37019486  
-7967.32230179 -65937.0163925 -36253.3878205 -3435.80003836  
-18550.8842437 -78767.4152864 -47793.3433692 -2542.31144468  
-31622.2140615 -93930.4094966 -61704.7694792 -1697.20268335  
-45972.3828718 -110020.419098 -76713.1992909 -859.326512311  
-60811.1615824 -126186.89185 -92001.5444364 -46.9002196025  
-99453.8957195 -165322.328403 -130282.180478 1028.64512505  
-101357.227562 -165749.854727 -131352.709676 2400.15675184  
-102482.633992 -163838.207021 -130800.473953 4541.78094954  
-103700.231758 -160225.294164 -129358.599701 7915.15910067  
-108911.470099 -153420.140965 -128542.700079 11740.8681391  
-123354.076929 -152231.171268 -135036.771617 15864.7988095  
-146346.211398 -157315.730868 -148793.043077 20178.2440084  
-182293.288274 -171764.237223 -173458.6532 25589.7107347  
-229985.171257 -196945.820588 -210286.774626 27043.1258818  
36980.491949 46670.2070979 41502.7821579 29136.8369635  
-27529.2284025 -34115.8698963 -30259.4223444 24993.8320721  
-50177.74035 -72508.3196421 -60121.0532833 20145.2186161  
-59530.8437447 -95681.4835676 -76054.040383 15115.347519  
-61924.2032787 -110470.336362 -84472.2891992 10820.4315637  
-67424.1828055 -124789.467826 -94234.9673771 7011.97869387  
-73006.7008073 -134262.580816 -101792.810484 3871.55276097  
-77132.9080449 -140931.491225 -107210.606182 1779.94986599  
-79768.2614678 -144808.54491 -110470.025597 402.772493327  
-14022.9858975 -18917.3094354 -16152.0792685 23379.8120495  
-37192.6914823 -55897.5930093 -45614.2394009 18973.1653781  
-47355.6978818 -78099.8215023 -61473.2044982 15362.2241026  
-50140.4902414 -91833.5651761 -69567.2871546 11733.7139403  
-50974.336259 -102437.003323 -75169.7284571 8316.13975299  
-54232.9619096 -112109.772397 -81558.6455483 5208.29179162  
-58685.7106913 -119589.331714 -87532.059603 2681.76017927  
-62166.2088757 -125053.915786 -92010.399526 922.163976504  
-65042.0064465 -128877.738858 -95345.5286038 -254.880930239  
-20926.8968089 -33839.4616917 -26835.5156653 16466.3998409  
-31430.8711635 -56806.6210673 -43236.3711931 14367.7759024  
-35892.7669965 -71532.8850378 -52638.5694968 11806.8208269  
-37714.3171309 -82412.5872007 -58862.1831225 8934.65847947  
-39080.3945128 -91479.7389918 -63974.4654172 6136.00939227  
-40832.3307919 -98397.9879238 -68255.2445794 3644.03787175  
-44393.4941616 -104396.003913 -73022.5302583 1613.32152171  
-47718.6156663 -109228.560211 -77087.6112052 170.563103218  
-50822.0284037 -113035.598579 -80511.8368162 -817.058028494  
-17752.2570949 -34568.6985672 -25637.2682745 11520.0005698  
-23875.117063 -52463.4111359 -37405.8788175 10398.8422204  
-25605.4888828 -63373.1288717 -43599.5226997 8607.43449741  
-26395.3360039 -71809.0006384 -48120.1249547 6410.13682003  
-28108.7741284 -79643.5259113 -52798.6270195 4235.27171471  
-28893.3137157 -84882.7076474 -55761.53822 2291.32107879  
-31091.6536379 -89592.7004343 -59188.3228885 705.079928632  
-34117.1546743 -93794.5017649 -62777.0456027 -462.064815243  
-37341.192776 -97546.5168374 -66222.2238155 -1291.78216339  
-12476.1976727 -30590.0083263 -21102.4409395 7816.76395607  
-16046.4744199 -45139.6678634 -29981.2097188 7150.4451672  
-16739.3324558 -54079.8520877 -34701.4004263 5877.47007982  
-17063.1696864 -60884.7045899 -38194.4583954 4257.67612661  
-18591.6006521 -67274.1704986 -42074.2278639 2659.21082188  
-19040.7121215 -71190.3612895 -44213.2259714 1229.91957143  
-19976.8211777 -74785.7901176 -46439.2577001 7.65730621936  
-22202.6603247 -78882.6035005 -49552.4516914 -930.194123956  
-25195.9386436 -82768.6325154 -52940.0277552 -1679.27928154  
-6609.49228722 -23954.3437581 -14976.2796622 5146.7475783  
-9125.81401318 -36431.8082438 -22323.2349059 4657.58677482  
-9579.2238443 -44189.8094902 -26346.8263339 3705.86020681  
-9831.14616296 -49888.9669394 -29262.8554201 2507.77170264  
-11016.5952183 -54900.3103131 -32299.2837104 1359.56685124  
-11399.7876914 -57809.4611969 -33912.5319553 366.326799635  
-11751.9409023 -60047.5159718 -35181.7338683 -490.541827883  
-13127.0606995 -63046.405812 -37324.9985906 -1205.22590953  
-14649.7375527 -65976.7106845 -39506.9596362 -1878.53815514  
-1306.40620154 -16066.5130553 -8512.73043587 3389.51136763  
-3889.73305765 -27451.2508479 -15357.0821137 2935.29096046  
-4087.45747076 -34031.1651753 -18678.1250966 2136.02827155  
-3890.79381695 -38371.0200701 -20708.2888047 1187.6913407  
-4494.18105686 -41963.7019026 -22764.3626501 334.345089606  
-4535.72150085 -43861.3560026 -23714.5679767 -341.895727579  
-4133.85602125 -44850.5913542 -24002.379214 -870.49872147  
-3935.33005994 -46097.4441825 -24516.0593788 -1288.39615243  
-3540.9881502 -47521.1302088 -25020.4379959 -1734.33028968  
602.672159166 -9971.32796394 -4590.64134434 2604.93287697  
-1356.87778967 -19669.0828864 -10302.7207313 2047.45983349  
418.27616265 -23420.9341418 -11271.3024098 1212.92403754  
1511.57378965 -26037.2088849 -12017.5611967 346.793928712  
1660.90746706 -28173.4325229 -12991.1372773 -336.580504691  
2113.37715448 -29077.5640283 -13212.4515682 -779.719159212  
3293.43001675 -28976.9563297 -12584.9278933 -1006.14193207  
5657.06837532 -28047.939449 -10971.5268261 -1032.92919659  
7972.05289425 -28158.8736156 -9891.54215348 -989.819789217  
-8152.46352385 -13680.1388692 -10697.9751726 3103.75811266  
928.524226377 -11476.6937683 -5168.60307556 2021.92649742  
5768.40076496 -11186.4075441 -2654.82332178 871.252210463  
7581.51268196 -12148.2828015 -2237.71735857 -50.4028177032  
7931.82160063 -13389.8802974 -2674.4487614 -635.096435816  
8245.85461478 -13994.6599088 -2816.91459408 -890.50800822  
9336.30087098 -13700.3719287 -2138.39481828 -847.727607302  
12558.9044405 -11739.7582593 401.381628803 -452.55484331  
21434.9544571 -5666.91480541 7726.33942932 314.122901592  
-105047.871503 -171939.645912 -136334.828157 1504.66486593  
-85651.5737215 -152451.060858 -117192.219357 1249.50638241  
50740.6126193 105086.095479 76495.0546116 16426.5071227  
16387.1020284 74008.9571009 44455.7089385 17102.7024419  
-55831.0201864 -13913.0577935 -34344.6626639 21159.2854021  
-70016.2061768 -47290.5352186 -57480.3032837 21851.6399388  
-86070.8309033 -85153.9445268 -83900.1399608 20635.4552794  
-93217.0664372 -114538.109596 -101800.036256 18549.9304504  
-96556.2885643 -137852.803042 -114850.019321 15557.5343295  
-103073.551162 -157667.980385 -127889.209122 11344.2021612  
-110496.348353 -171509.298568 -138587.577799 7464.75928304  
-119532.502577 -184516.452538 -149588.895956 4408.46227022  
-133393.184431 -200160.728242 -164184.057591 2410.81491748  
-114928.411653 -181455.46897 -145868.490487 1588.65206799  
-114126.989227 -179150.324611 -144258.939326 2703.48444165  
-112458.797619 -174236.16236 -140827.899634 4540.95095456  
-110552.605668 -167322.711984 -136174.064694 7540.99321627  
-110238.064261 -153245.474145 -129106.933819 10794.9726422  
-111371.702578 -136669.970469 -121540.419793 14374.6719386  
-110384.723705 -115970.922624 -110914.266701 18183.4685666  
-117534.476541 -101414.134385 -107284.775238 21711.4309469  
-161799.564523 -122707.731781 -139919.889038 22778.7334844  
-304795.909121 -284853.237218 -288805.900669 14204.2755523  
-143832.354961 -98859.7460582 -118920.133038 6736.37286916  
-318235.838784 -271785.192884 -289106.528671 7584.05738687  
-67942.9311423 -12653.4068157 -39615.1782399 4590.63457587  
-52576.1312501 11657.8047519 -20318.000602 7316.78239466  
-298725.003338 -245117.039087 -266844.004859 11375.7958697  
-142692.990825 -84569.7190766 -111765.826708 12839.7878983  
-183999.655104 -124325.780745 -151298.68516 7398.9292646  
-112421.374214 -48735.0279943 -79332.6719278 9746.08090336  
-613657.001762 -657470.615092 -623653.259901 10084.5666613  
-680470.389526 -705140.935236 -678949.549133 15558.1505331  
-646491.530952 -670482.653745 -645317.350502 18018.3234802  
-616034.284366 -639147.649779 -615039.147731 20091.9383596  
-582749.563092 -604880.1309 -581942.331684 21811.4076656  
-543045.244074 -564154.245928 -542502.665484 23234.0773851  
-494494.119868 -514239.559929 -494250.344066 24083.3665586  
-438202.837914 -456312.204291 -438313.751395 24181.8179887  
-370829.181704 -387167.251343 -371418.252193 23644.1710948  
-282713.446048 -297241.449738 -284177.898935 22088.545929  
-185347.397417 -252236.265779 -215412.980783 2909.80718163  
-322328.573437 -384541.470193 -347234.512392 5351.37412271  
-296321.171696 -350328.721946 -317039.370404 9482.14081673  
-182213.065615 -246013.5588 -210619.100134 4468.49094993  
-313059.361622 -359910.967762 -329703.895392 13214.525471  
-172438.030757 -232281.465245 -198832.957581 7469.07717262  
-317480.30065 -359073.577489 -331474.961273 16527.2710901  
-174285.973798 -229666.219461 -198223.8233 11496.4469231  
-320157.149725 -356116.06535 -331357.607433 19374.4324256  
-177808.429341 -226541.222762 -198151.123912 16059.7176102  
-324032.902449 -353016.274038 -331801.683823 21379.3749527  
-185750.393424 -221432.989638 -199519.747335 19405.5719535  
-328980.646884 -349638.375405 -332577.73242 22449.3301375  
-196189.26258 -215202.106335 -201581.770768 21051.7486828  
-337786.935279 -348513.650603 -336284.710633 22341.2054639  
-206066.006587 -206123.15071 -201972.687076 20769.3187001  
-355040.534792 -352845.15121 -346863.986141 20438.0610547  
-213236.487851 -191964.289082 -198548.380697 18939.103703  
-396109.275937 -369843.06837 -375294.746858 16605.0697105  
-195519.474506 -151909.205441 -170316.984778 16325.4596998  
10008.9372705 -30686.3033804 -10131.9093938 2934.61189886  
-464561.660332 -524741.896543 -486165.411706 7676.49579704  
-419793.946597 -479230.90087 -441552.736604 6884.15767904  
-373968.358657 -432656.978788 -395941.710024 6175.91644096  
-328192.141941 -386126.516383 -350419.063314 5548.850407  
-282769.124988 -339962.332822 -305296.155347 5009.3710646  
-236880.782578 -292738.517115 -259533.595961 4543.65930232  
-192010.141748 -245417.439093 -214339.514612 4086.67344517  
-147179.630134 -197771.304174 -169025.957811 3679.80922229  
-102230.341246 -149917.76388 -123552.571512 3348.6545455  
-57199.8350608 -102022.779112 -78019.0809446 3108.10051821  
-10812.0141068 -52929.1269564 -31233.159121 2970.2008861  
8545.89574641 -31252.5810409 -11126.2757943 116.898933712  
-9826.5283859 -44830.1842636 -26781.7891982 -1497.80574362  
-310845.185471 -373898.281139 -336684.016198 4637.76047633  
-275947.603582 -337809.621938 -301584.20543 3754.82327054  
-242786.285275 -303464.627931 -268236.94341 2960.79742404  
-210519.692067 -270052.787068 -235824.521874 2236.5236025  
-179039.027248 -237330.514995 -204157.122129 1676.37455334  
-148242.130181 -204945.829281 -173066.033332 1136.20720241  
-118030.575732 -172021.52866 -142124.21676 494.537330877  
-88292.1936436 -139424.376142 -111581.119195 -99.7011588753  
-59139.5752679 -107032.825294 -81424.4762752 -474.200714505  
-30384.2429846 -74830.9475499 -51555.4433619 -473.370370791  
-2756.66424613 -44051.6289798 -22936.0636807 -154.274381812  
-177914.87032 -244486.070222 -207925.069764 2524.66147877  
-157584.797355 -222399.222098 -186916.855105 1679.51538843  
-138545.834511 -202097.514069 -167472.956887 718.108376241  
-119368.984284 -181529.052702 -147841.799949 -301.827401111  
-99538.0066166 -160077.351379 -127465.357975 -1300.21709168  
-80471.2859039 -139279.023657 -107792.919926 -2274.62004723  
-61627.8305849 -118427.217767 -88232.6470733 -3274.43395092  
-44216.8316466 -96905.0897015 -69149.7859993 -4135.07686113  
-27254.3178627 -75429.8785647 -50315.2562494 -4606.68816608  
-10351.8406882 -53538.6334582 -31306.3323318 -4376.31136321  
3743.7474312 -34450.840635 -15046.4756698 -2906.26984261  
</DataArray>
<DataArray type="Float64" Name="equivalent_strain" NumberOfComponents="1" format="ascii" >
0.00124511907946  
0.0  
0.00104340305623  
0.000129057797514  
0.0  
0.0  
0.0  
0.0  
0.0  
0.0  
0.0  
0.0  
0.0  
0.0  
0.0  
0.0  
0.0  
0.0  
0.0  
0.0  
0.0  
0.000728795569268  
0.0  
0.0  
0.0  
0.0  
6.02715467673e-05  
0.000225336502156  
0.000390250992255  
0.000532296375815  
0.000645219260404  
0.000707284799334  
0.000594623770802  
0.00037919805221  
0.000103061111185  
0.0  
0.0  
0.0  
8.47676528853e-06  
0.000544080765588  
0.000484595303526  
8.52549572878e-05  
0.0  
0.0  
0.0  
0.000114887550498  
0.000354039494649  
0.000536363251133  
0.000633269529661  
8.79384366905e-07  
0.0  
0.0  
0.0  
0.0  
0.000103134661079  
0.000301188180092  
0.000451500310866  
0.000529269905506  
0.0  
0.0  
0.0  
0.0  
0.0  
6.53949728774e-05  
0.000210008614908  
0.000330267557433  
0.000391186738231  
0.0  
0.0  
0.0  
0.0  
0.0  
1.83561235707e-05  
8.76079643266e-05  
0.000173037895008  
0.000221421678848  
0.0  
0.0  
0.0  
0.0  
0.0  
0.0  
8.17074010143e-06  
2.98953035912e-05  
5.10815372855e-05  
0.0  
0.0  
0.0  
0.0  
0.0  
0.0  
0.0  
0.0  
0.0  
0.0  
0.0  
0.0  
0.0  
0.0  
0.0  
0.0  
0.0  
0.0  
0.0  
0.0  
0.0  
0.0  
0.0  
0.0  
0.0  
0.0  
0.0  
0.0  
0.0  
0.0  
0.0  
0.0  
0.0  
0.0  
0.0  
0.0  
0.000801909533112  
0.000787804319283  
0.000479711619546  
0.000770526231564  
0.000133573271047  
0.0  
0.0  
0.0  
1.88925090847e-05  
0.000169755481518  
0.000439016096183  
0.000652800598113  
0.000773731555252  
0.000765059900181  
0.000650429547854  
0.000413535901851  
0.000102495119323  
0.0  
0.0  
0.0  
0.0  
0.000236013414987  
0.0  
0.0  
0.0  
0.00012998858441  
0.000738080544316  
0.000193720913422  
0.000472760183143  
0.000225750416835  
0.000742702155449  
0.000259827373983  
0.0  
0.0  
0.0  
0.0  
0.0  
0.0  
0.0  
0.0  
0.0  
0.000779110619512  
0.000420825482933  
0.000107449696013  
0.000560636332626  
6.80089647498e-06  
0.000343564027015  
0.0  
0.00018943010986  
0.0  
4.90789921693e-05  
1.07936240449e-05  
0.0  
1.16704242291e-05  
0.0  
0.0  
0.0  
0.0  
0.0  
0.0  
5.51449823933e-05  
0.0  
0.000459937077254  
0.000353137996267  
0.00025175172039  
0.000155477350668  
6.3412423979e-05  
8.15300032824e-06  
0.0  
0.0  
0.0  
0.0  
0.0  
0.0  
0.0  
0.000564206591958  
0.000437183300028  
0.000320586778954  
0.000209867626022  
9.54578027372e-05  
1.45586165092e-05  
0.0  
0.0  
0.0  
0.0  
0.0  
0.000768397071631  
0.000622889232488  
0.000509756964743  
0.000389059214269  
0.000253225396621  
0.00011156422667  
1.32080206733e-05  
0.0  
0.0  
0.0  
0.0  
</DataArray>
</PointData>
<CellData>
</CellData>
<Points>
<DataArray type="Float64" Name="Points" NumberOfComponents="3" format="ascii">
45.0 30.0 0.0
35.0 40.0 0.0
44.0 31.0 0.0
43.0 32.0 0.0
42.0 33.0 0.0
41.0 34.0 0.0
40.0 35.0 0.0
39.0 36.0 0.0
38.0 37.0 0.0
37.0 38.0 0.0
36.0 39.0 0.0
25.0 40.0 0.0
34.0 40.0 0.0
33.0 40.0 0.0
32.0 40.0 0.0
31.0 40.0 0.0
30.0 40.0 0.0
29.0 40.0 0.0
28.0 40.0 0.0
27.0 40.0 0.0
26.0 40.0 0.0
25.0 30.0 0.0
25.0 39.0 0.0
25.0 38.0 0.0
25.0 37.0 0.0
25.0 36.0 0.0
25.0 35.0 0.0
25.0 34.0 0.0
25.0 33.0 0.0
25.0 32.0 0.0
25.0 31.0 0.0
27.0 30.0 0.0
29.0 30.0 0.0
31.0 30.0 0.0
33.0 30.0 0.0
35.0 30.0 0.0
37.0 30.0 0.0
39.0 30.0 0.0
41.0 30.0 0.0
43.0 30.0 0.0
42.1 31.0 0.0
40.2 31.0 0.0
38.3 31.0 0.0
36.4 31.0 0.0
34.5 31.0 0.0
32.6 31.0 0.0
30.7 31.0 0.0
28.8 31.0 0.0
26.9 31.0 0.0
41.2 32.0 0.0
39.4 32.0 0.0
37.6 32.0 0.0
35.8 32.0 0.0
34.0 32.0 0.0
32.2 32.0 0.0
30.4 32.0 0.0
28.6 32.0 0.0
26.8 32.0 0.0
40.3 33.0 0.0
38.6 33.0 0.0
36.9 33.0 0.0
35.2 33.0 0.0
33.5 33.0 0.0
31.8 33.0 0.0
30.1 33.0 0.0
28.4 33.0 0.0
26.7 33.0 0.0
39.4 34.0 0.0
37.8 34.0 0.0
36.2 34.0 0.0
34.6 34.0 0.0
33.0 34.0 0.0
31.4 34.0 0.0
29.8 34.0 0.0
28.2 34.0 0.0
26.6 34.0 0.0
38.5 35.0 0.0
37.0 35.0 0.0
35.5 35.0 0.0
34.0 35.0 0.0
32.5 35.0 0.0
31.0 35.0 0.0
29.5 35.0 0.0
28.0 35.0 0.0
26.5 35.0 0.0
37.6 36.0 0.0
36.2 36.0 0.0
34.8 36.0 0.0
33.4 36.0 0.0
32.0 36.0 0.0
30.6 36.0 0.0
29.2 36.0 0.0
27.8 36.0 0.0
26.4 36.0 0.0
36.7 37.0 0.0
35.4 37.0 0.0
34.1 37.0 0.0
32.8 37.0 0.0
31.5 37.0 0.0
30.2 37.0 0.0
28.9 37.0 0.0
27.6 37.0 0.0
26.3 37.0 0.0
35.8 38.0 0.0
34.6 38.0 0.0
33.4 38.0 0.0
32.2 38.0 0.0
31.0 38.0 0.0
29.8 38.0 0.0
28.6 38.0 0.0
27.4 38.0 0.0
26.2 38.0 0.0
34.9 39.0 0.0
33.8 39.0 0.0
32.7 39.0 0.0
31.6 39.0 0.0
30.5 39.0 0.0
29.4 39.0 0.0
28.3 39.0 0.0
27.2 39.0 0.0
26.1 39.0 0.0
25.0 28.0 0.0
25.0 29.0 0.0
45.0 28.0 0.0
45.0 29.0 0.0
43.0 28.0 0.0
41.0 28.0 0.0
39.0 28.0 0.0
37.0 28.0 0.0
35.0 28.0 0.0
33.0 28.0 0.0
31.0 28.0 0.0
29.0 28.0 0.0
27.0 28.0 0.0
27.0 29.0 0.0
29.0 29.0 0.0
31.0 29.0 0.0
33.0 29.0 0.0
35.0 29.0 0.0
37.0 29.0 0.0
39.0 29.0 0.0
41.0 29.0 0.0
43.0 29.0 0.0
75.0 0.0 0.0
75.0 30.0 0.0
75.0 15.0 0.0
57.8571428571 30.0 0.0
49.2857142857 30.0 0.0
57.8571428571 16.0 0.0
49.2857142857 24.0 0.0
57.8571428571 23.0 0.0
49.2857142857 27.0 0.0
0.0 0.0 0.0
7.5 0.0 0.0
15.0 0.0 0.0
22.5 0.0 0.0
30.0 0.0 0.0
37.5 0.0 0.0
45.0 0.0 0.0
52.5 0.0 0.0
60.0 0.0 0.0
67.5 0.0 0.0
21.4285714286 24.0 0.0
14.2857142857 16.0 0.0
18.6428571429 16.0 0.0
24.2142857143 24.0 0.0
23.0 16.0 0.0
27.0 24.0 0.0
27.3571428571 16.0 0.0
29.7857142857 24.0 0.0
31.7142857143 16.0 0.0
32.5714285714 24.0 0.0
36.0714285714 16.0 0.0
35.3571428571 24.0 0.0
40.4285714286 16.0 0.0
38.1428571429 24.0 0.0
44.7857142857 16.0 0.0
40.9285714286 24.0 0.0
49.1428571429 16.0 0.0
43.7142857143 24.0 0.0
53.5 16.0 0.0
46.5 24.0 0.0
0.0 40.0 0.0
0.0 3.33333333333 0.0
0.0 6.66666666667 0.0
0.0 10.0 0.0
0.0 13.3333333333 0.0
0.0 16.6666666667 0.0
0.0 20.0 0.0
0.0 23.3333333333 0.0
0.0 26.6666666667 0.0
0.0 30.0 0.0
0.0 33.3333333333 0.0
0.0 36.6666666667 0.0
14.2857142857 40.0 0.0
21.4285714286 40.0 0.0
14.2857142857 18.0 0.0
14.2857142857 20.0 0.0
14.2857142857 22.0 0.0
14.2857142857 24.0 0.0
14.2857142857 26.0 0.0
14.2857142857 28.0 0.0
14.2857142857 30.0 0.0
14.2857142857 32.0 0.0
14.2857142857 34.0 0.0
14.2857142857 36.0 0.0
14.2857142857 38.0 0.0
21.4285714286 25.3333333333 0.0
21.4285714286 26.6666666667 0.0
21.4285714286 28.0 0.0
21.4285714286 29.3333333333 0.0
21.4285714286 30.6666666667 0.0
21.4285714286 32.0 0.0
21.4285714286 33.3333333333 0.0
21.4285714286 34.6666666667 0.0
21.4285714286 36.0 0.0
21.4285714286 37.3333333333 0.0
21.4285714286 38.6666666667 0.0
</DataArray>
</Points>
<Cells>
<DataArray type="Int64" Name="connectivity" format="ascii">
0 2 40 39 
2 3 49 40 
3 4 58 49 
4 5 67 58 
5 6 76 67 
6 7 85 76 
7 8 94 85 
8 9 103 94 
9 10 112 103 
10 1 12 112 
39 40 41 38 
40 49 50 41 
49 58 59 50 
58 67 68 59 
67 76 77 68 
76 85 86 77 
85 94 95 86 
94 103 104 95 
103 112 113 104 
112 12 13 113 
38 41 42 37 
41 50 51 42 
50 59 60 51 
59 68 69 60 
68 77 78 69 
77 86 87 78 
86 95 96 87 
95 104 105 96 
104 113 114 105 
113 13 14 114 
37 42 43 36 
42 51 52 43 
51 60 61 52 
60 69 70 61 
69 78 79 70 
78 87 88 79 
87 96 97 88 
96 105 106 97 
105 114 115 106 
114 14 15 115 
36 43 44 35 
43 52 53 44 
52 61 62 53 
61 70 71 62 
70 79 80 71 
79 88 89 80 
88 97 98 89 
97 106 107 98 
106 115 116 107 
115 15 16 116 
35 44 45 34 
44 53 54 45 
53 62 63 54 
62 71 72 63 
71 80 81 72 
80 89 90 81 
89 98 99 90 
98 107 108 99 
107 116 117 108 
116 16 17 117 
34 45 46 33 
45 54 55 46 
54 63 64 55 
63 72 73 64 
72 81 82 73 
81 90 91 82 
90 99 100 91 
99 108 109 100 
108 117 118 109 
117 17 18 118 
33 46 47 32 
46 55 56 47 
55 64 65 56 
64 73 74 65 
73 82 83 74 
82 91 92 83 
91 100 101 92 
100 109 110 101 
109 118 119 110 
118 18 19 119 
32 47 48 31 
47 56 57 48 
56 65 66 57 
65 74 75 66 
74 83 84 75 
83 92 93 84 
92 101 102 93 
101 110 111 102 
110 119 120 111 
119 19 20 120 
31 48 30 21 
48 57 29 30 
57 66 28 29 
66 75 27 28 
75 84 26 27 
84 93 25 26 
93 102 24 25 
102 111 23 24 
111 120 22 23 
120 20 11 22 
121 133 134 122 
133 132 135 134 
132 131 136 135 
131 130 137 136 
130 129 138 137 
129 128 139 138 
128 127 140 139 
127 126 141 140 
126 125 142 141 
125 123 124 142 
122 134 31 21 
134 135 32 31 
135 136 33 32 
136 137 34 33 
137 138 35 34 
138 139 36 35 
139 140 37 36 
140 141 38 37 
141 142 39 38 
142 124 0 39 
143 145 150 148 
145 144 146 150 
148 150 151 149 
150 146 147 151 
149 151 124 123 
151 147 0 124 
152 153 164 163 
153 154 166 164 
154 155 168 166 
155 156 170 168 
156 157 172 170 
157 158 174 172 
158 159 176 174 
159 160 178 176 
160 161 180 178 
161 143 148 180 
163 164 165 162 
164 166 167 165 
166 168 169 167 
168 170 171 169 
170 172 173 171 
172 174 175 173 
174 176 177 175 
176 178 179 177 
178 180 181 179 
180 148 149 181 
162 165 133 121 
165 167 132 133 
167 169 131 132 
169 171 130 131 
171 173 129 130 
173 175 128 129 
175 177 127 128 
177 179 126 127 
179 181 125 126 
181 149 123 125 
152 163 196 183 
163 162 207 196 
162 121 122 207 
183 196 197 184 
196 207 208 197 
207 122 21 208 
184 197 198 185 
197 208 209 198 
208 21 30 209 
185 198 199 186 
198 209 210 199 
209 30 29 210 
186 199 200 187 
199 210 211 200 
210 29 28 211 
187 200 201 188 
200 211 212 201 
211 28 27 212 
188 201 202 189 
201 212 213 202 
212 27 26 213 
189 202 203 190 
202 213 214 203 
213 26 25 214 
190 203 204 191 
203 214 215 204 
214 25 24 215 
191 204 205 192 
204 215 216 205 
215 24 23 216 
192 205 206 193 
205 216 217 206 
216 23 22 217 
193 206 194 182 
206 217 195 194 
217 22 11 195 
</DataArray>
<DataArray type="Int64" Name="offsets" format="ascii">
4
8
12
16
20
24
28
32
36
40
44
48
52
56
60
64
68
72
76
80
84
88
92
96
100
104
108
112
116
120
124
128
132
136
140
144
148
152
156
160
164
168
172
176
180
184
188
192
196
200
204
208
212
216
220
224
228
232
236
240
244
248
252
256
260
264
268
272
276
280
284
288
292
296
300
304
308
312
316
320
324
328
332
336
340
344
348
352
356
360
364
368
372
376
380
384
388
392
396
400
404
408
412
416
420
424
428
432
436
440
444
448
452
456
460
464
468
472
476
480
484
488
492
496
500
504
508
512
516
520
524
528
532
536
540
544
548
552
556
560
564
568
572
576
580
584
588
592
596
600
604
608
612
616
620
624
628
632
636
640
644
648
652
656
660
664
668
672
676
680
684
688
692
696
700
704
708
712
716
720
724
728
732
736
740
744
748
752
756
760
764
768
</DataArray>
<DataArray type="UInt8" Name="types" format="ascii" RangeMin="9" RangeMax="9">
9
9
9
9
9
9
9
9
9
9
9
9
9
9
9
9
9
9
9
9
9
9
9
9
9
9
9
9
9
9
9
9
9
9
9
9
9
9
9
9
9
9
9
9
9
9
9
9
9
9
9
9
9
9
9
9
9
9
9
9
9
9
9
9
9
9
9
9
9
9
9
9
9
9
9
9
9
9
9
9
9
9
9
9
9
9
9
9
9
9
9
9
9
9
9
9
9
9
9
9
9
9
9
9
9
9
9
9
9
9
9
9
9
9
9
9
9
9
9
9
9
9
9
9
9
9
9
9
9
9
9
9
9
9
9
9
9
9
9
9
9
9
9
9
9
9
9
9
9
9
9
9
9
9
9
9
9
9
9
9
9
9
9
9
9
9
9
9
9
9
9
9
9
9
9
9
9
9
9
9
9
9
9
9
9
9
9
9
9
9
9
9
</DataArray>
</Cells>
</Piece>
</UnstructuredGrid>
</VTKFile>
