<?xml version="1.0"?>
<VTKFile type="UnstructuredGrid" version="0.1" byte_order="LittleEndian" compressor="vtkZLibDataCompressor">
<UnstructuredGrid>
<Piece NumberOfPoints="218" NumberOfCells="192">
<PointData>
<DataArray type="Float64" Name="displacement" NumberOfComponents="3" format="ascii" >
0.00813435948806 -0.00130814284231  0.
0.0048344630019 -0.00770766353572  0.
0.00870841760941 -0.0017262089796  0.
0.00879680280176 -0.00228229968911  0.
0.00860947704614 -0.00290572083452  0.
0.0082430537516 -0.0035754305148  0.
0.00775597608907 -0.00427667826234  0.
0.00719011806541 -0.00499538431061  0.
0.00657969255505 -0.00571569468919  0.
0.00595639203227 -0.00641923449064  0.
0.00535494882919 -0.00708596911236  0.
0.00432647952664 -0.0111025392047  0.
0.00484620830366 -0.00831316725635  0.
0.00482357259251 -0.00883607207482  0.
0.00478648032768 -0.00928672697551  0.
0.00474076397394 -0.00967241587123  0.
0.00468880385322 -0.0100004848057  0.
0.00463131588232 -0.0102788728864  0.
0.00456828670449 -0.0105164567001  0.
0.00449918285307 -0.0107234327942  0.
0.00442205848482 -0.0109123212425  0.
0.00575490812475 -0.00851234248513  0.
0.00444802983015 -0.0109684766934  0.
0.00459328325018 -0.0107996172643  0.
0.00475537430441 -0.0106004690594  0.
0.00492369749105 -0.010371945425  0.
0.00509047534994 -0.010115767496  0.
0.00524989076124 -0.00983430431301  0.
0.0053979601254 -0.00953027885469  0.
0.00553221968525 -0.00920657871999  0.
0.00565137491415 -0.00886618413472  0.
0.00638240958345 -0.00828990896221  0.
0.00699735619019 -0.00796505441777  0.
0.00757489288269 -0.00752385340125  0.
0.00808687622172 -0.0069532100544  0.
0.00850384577321 -0.00624781629382  0.
0.00879747013501 -0.00541650941504  0.
0.00894209360515 -0.00448417456375  0.
0.00891099595625 -0.0034844947304  0.
0.00867036717553 -0.00244889256888  0.
0.00885867238789 -0.00284428855653  0.
0.00890180889888 -0.00391212585371  0.
0.0088057881327 -0.0049230383444  0.
0.00858421177331 -0.00585154417136  0.
0.00825318713437 -0.00666968508526  0.
0.007831722903 -0.00735896298503  0.
0.00734069038964 -0.00791412591737  0.
0.0068012647526 -0.00834172692501  0.
0.00623267911869 -0.00865468913831  0.
0.00880610552038 -0.00337302229809  0.
0.0087272545632 -0.00442571207132  0.
0.00855673077356 -0.00541833237022  0.
0.00829361873224 -0.0063196786886  0.
0.00794960553519 -0.00710710850239  0.
0.00753908505554 -0.00776693713226  0.
0.00707793904757 -0.00829714426755  0.
0.00658149602113 -0.00870541384876  0.
0.00606284334423 -0.00900447730117  0.
0.00855811179982 -0.00397240329589  0.
0.00842442502212 -0.00499349351983  0.
0.00821610178182 -0.00594675255153  0.
0.0079382568487 -0.00680473655045  0.
0.00759996641108 -0.00754872592634  0.
0.00721299930678 -0.00816957979703  0.
0.00678955564263 -0.00866803972181  0.
0.00634071218721 -0.00905279447955  0.
0.0058750201569 -0.00933634947152  0.
0.00816859701546 -0.00461142320672  0.
0.0080163013533 -0.00558896501155  0.
0.0078000793591 -0.0064897160201  0.
0.00752857227354 -0.00729265838602  0.
0.00721138026361 -0.00798434079202  0.
0.00685847229753 -0.00855965484318  0.
0.00647941285659 -0.0090218132352  0.
0.00608205646267 -0.00938031599821  0.
0.00567154399532 -0.00964743902923  0.
0.00767822916713 -0.00526998029283  0.
0.00752958290189 -0.00619239140906  0.
0.00732567658671 -0.00703079715048  0.
0.00707686401567 -0.00777086893752  0.
0.00679277280003 -0.00840443564588  0.
0.00648225145016 -0.00893019164581  0.
0.00615281986918 -0.00935345544713  0.
0.00580984091688 -0.00968436607458  0.
0.00545585650781 -0.00993490459842  0.
0.00712089342814 -0.00593128064421  0.
0.00699010452063 -0.00678754828098  0.
0.00681222616654 -0.00755599813701  0.
0.00659752296837 -0.0082280871203  0.
0.00635516839848 -0.0088002951174  0.
0.00609295519845 -0.00927459619031  0.
0.00581676856853 -0.00965807809642  0.
0.00552995229731 -0.00996133329534  0.
0.00523296769966 -0.010195933058  0.
0.0065272108333 -0.00657943755544  0.
0.00642367634071 -0.00736021580511  0.
0.0062804619767 -0.00805328252941  0.
0.00610688767937 -0.00865450516221  0.
0.00591147680468 -0.00916412787014  0.
0.00570099772372 -0.00958678784861  0.
0.00547996393872 -0.00993096638387  0.
0.00525002292061 -0.0102075891392  0.
0.00500973362834 -0.0104277236688  0.
0.00592751839442 -0.00719905881758  0.
0.00585681986286 -0.00789806786016  0.
0.00575207960199 -0.00851259469851  0.
0.00562252800504 -0.00904182624017  0.
0.00547604201512 -0.00948918379046  0.
0.00531827088966 -0.00986129306166  0.
0.00515250697074 -0.0101675838272  0.
0.0049791873406 -0.0104193075356  0.
0.00479490805219 -0.0106273535835  0.
0.0053554035819 -0.00777756672602  0.
0.0053162266971 -0.00839195583834  0.
0.00524840517483 -0.00892592507126  0.
0.00516210714219 -0.00938319816194  0.
0.00506384145892 -0.00976969010012  0.
0.00495759725589 -0.0100932994842  0.
0.00484532300576 -0.0103637538754  0.
0.00472680643786 -0.0105922540035  0.
0.00459824456879 -0.0107908055899  0.
0.00591595216593 -0.00778204406912  0.
0.00584333166614 -0.00814834755839  0.
0.00825506517209 -0.00191271294716  0.
0.00818899863726 -0.00164408371181  0.
0.00872829371366 -0.00274915743316  0.
0.00903846357955 -0.00357567337472  0.
0.00916646112007 -0.00437792975589  0.
0.00908947040619 -0.0051277012734  0.
0.00882020871808 -0.00580032459596  0.
0.00839040544711 -0.00637824252595  0.
0.00784061185732 -0.00685600473454  0.
0.00721274645543 -0.00724077216372  0.
0.00655453612054 -0.00754588526819  0.
0.00648177564664 -0.0079244401306  0.
0.0071168888914 -0.00761180668866  0.
0.00771561675755 -0.0071982813264  0.
0.00824230210261 -0.00667170375547  0.
0.00866157633234 -0.00602621530037  0.
0.00894140270815 -0.0052692052016  0.
0.00905532947237 -0.00442290332143  0.
0.0089855393943 -0.00352178792845  0.
0.00871720901721 -0.00259630985762  0.
0.0 0.0  0.
0.0 0.0048597096915  0.
0.0 0.00205539967657  0.
0.00384934273523 0.0027852672277  0.
0.00640281538432 0.000670694186146  0.
0.00507860361756 -0.000906883783192  0.
0.00734294982983 -0.00128385152589  0.
0.00456126674625 0.000974481670002  0.
0.00697167368177 -0.000375498971358  0.
0.0 0.0  0.
0.0 0.0  0.
0.0 0.0  0.
0.0 0.0  0.
0.0 0.0  0.
0.0 0.0  0.
0.0 0.0  0.
0.0 0.0  0.
0.0 0.0  0.
0.0 0.0  0.
0.00504088244257 -0.00668701079355  0.
0.00317739540859 -0.00436239972911  0.
0.00423468137522 -0.00397148539933  0.
0.00590340089203 -0.00635597442339  0.
0.00501514945749 -0.00378797886077  0.
0.0067184832718 -0.00604832545942  0.
0.00568524538245 -0.00361843033053  0.
0.00744836471766 -0.00572293114378  0.
0.00624805595844 -0.0034305598218  0.
0.00807140043343 -0.00533269601877  0.
0.00667858983935 -0.00320926513046  0.
0.00854286614274 -0.00486207478502  0.
0.0069428125311 -0.00294906867514  0.
0.00881545491701 -0.00431059529672  0.
0.00700505416193 -0.00264528527011  0.
0.00885065327083 -0.00368543323497  0.
0.00682037590948 -0.0022798861161  0.
0.00862269730496 -0.0029888393144  0.
0.00630448834339 -0.0018052394771  0.
0.00809681706579 -0.00218319354324  0.
0.0 -0.0120809690891  0.
0.0 -0.00136001848772  0.
0.0 -0.00266637872831  0.
0.0 -0.00391453450691  0.
0.0 -0.00510165852504  0.
0.0 -0.00622484925824  0.
0.0 -0.00728090711461  0.
0.0 -0.00826657360489  0.
0.0 -0.00917896491868  0.
0.0 -0.0100161396528  0.
0.0 -0.010777738817  0.
0.0 -0.0114655730366  0.
0.00258106452002 -0.0112378501724  0.
0.00383098495179 -0.0112609923032  0.
0.0031755400508 -0.0051015876723  0.
0.00315821942398 -0.00582313431893  0.
0.00313219322876 -0.00651924914531  0.
0.00309698353358 -0.0071879952142  0.
0.00305107808738 -0.00782758990614  0.
0.00299368782831 -0.00843531536536  0.
0.00292544628665 -0.00900758942254  0.
0.0028489231635 -0.00954043911394  0.
0.00276905406111 -0.0100302790574  0.
0.00269330701247 -0.0104749962433  0.
0.00263126388403 -0.010875214066  0.
0.00497387324661 -0.007200359844  0.
0.00491115175687 -0.00768446574479  0.
0.00483955404028 -0.00815127978835  0.
0.00475488588341 -0.00860152013933  0.
0.00465567393714 -0.00903304420494  0.
0.00454194158983 -0.00944271565119  0.
0.00441533048987 -0.00982688000597  0.
0.00427955247243 -0.0101817049382  0.
0.00414084806025 -0.0105036982141  0.
0.00400834871542 -0.0107904470295  0.
0.00389416718897 -0.0110416948513  0.
</DataArray>
<DataArray type="Float64" Name="stresses" NumberOfComponents="4" format="ascii" >
-16718.4570304 -8802.85820784 -12505.4444668 3938.96467651  
-9153.0325467 -9210.04654055 -8997.90875275 495.621531736  
5827.36501201 8263.09992688 6904.32782005 5632.85149668  
3326.44776225 3617.64978331 3402.60779733 3695.51913533  
3905.47150664 3244.12669245 3503.30311755 2552.64287976  
3339.12054227 2203.72385431 2715.99375432 1791.85955389  
1985.61357451 647.26111955 1290.10860009 1257.93314162  
168.146851924 -1181.36112203 -496.474992351 871.521860074  
-1710.25998668 -2890.41067486 -2254.32862415 591.993786323  
-3189.32110604 -3986.37192412 -3516.08958478 416.601114368  
-5032.27786442 -5233.77304025 -5030.36494329 456.064372531  
-4143.64705212 -7531.50450078 -5720.82426092 -16.5423027438  
-7069.79904315 -7513.0669473 -7145.60433532 406.586768624  
-7503.13161641 -8636.01866319 -7908.183637 126.527883326  
-7930.01257087 -9400.95644684 -8492.17481868 -93.2692924351  
-7690.51921935 -9358.24874532 -8353.89630269 -230.6563229  
-7036.88924569 -8840.62288787 -7779.98094544 -293.984416914  
-6216.7730356 -8139.02243622 -7034.33978119 -293.500158687  
-5446.06051543 -7495.84745475 -6341.53490538 -232.66655086  
-4876.26036063 -7096.01073339 -5866.41283607 -100.681720811  
-3951.51118725 -6496.67340388 -5119.61044966 146.046175681  
-8947.50297729 -18041.4062916 -13224.5655418 83.3047341287  
2043.20477365 -2041.28263211 0.94184935529 -225.527072765  
986.111239957 -3908.19814268 -1431.82258234 -431.802754256  
289.225236362 -5360.53253307 -2484.94057539 -540.831488132  
-601.311499764 -6964.48275532 -3707.23918499 -565.321041348  
-1655.30591045 -8671.5332862 -5060.15120636 -528.016789253  
-2856.85928474 -10453.2023623 -6521.93020704 -445.632283007  
-4200.30604468 -12297.3656425 -8083.85912672 -332.306595559  
-5677.07205975 -14192.6809064 -9736.17895341 -199.761394623  
-7255.96957198 -16104.9873134 -11446.8688738 -57.8260385404  
-11496.6241845 -20475.5406172 -15666.3607529 186.595440701  
-11672.5795245 -20316.3324849 -15674.5668846 426.210131881  
-11997.5725387 -19948.8509153 -15653.7474925 713.643213223  
-12548.8530995 -19421.9702821 -15665.703457 1074.62332567  
-13452.3242177 -18865.4890765 -15835.7285142 1505.35659397  
-14819.9473676 -18422.0383435 -16288.5729984 1979.97262816  
-17033.3885811 -18499.7991748 -17411.2620004 2469.07114703  
-20661.3036451 -19634.3990855 -19744.894338 2948.66257436  
-26957.0875298 -22722.3323074 -24342.9157202 3535.44491039  
495.29361039 1935.26933797 1190.9758447 4001.61104109  
-6355.62201468 -6979.79122206 -6534.352486 3124.57043857  
-7688.87812491 -10281.1524863 -8805.31499951 2521.64475089  
-8150.83264726 -12460.0241133 -10099.3198127 1977.79833697  
-8346.57947448 -14107.9751204 -11002.7317515 1465.98993233  
-8551.38443878 -15477.255454 -11774.0335475 1003.84649385  
-8812.88112564 -16601.7421809 -12453.1654202 613.903700266  
-9093.00374728 -17453.5376009 -13007.8052606 303.783481481  
-9353.61812335 -18027.0441245 -13416.5245014 56.9805941542  
-2882.66287619 -3516.18648458 -3135.43618678 3099.87183658  
-4806.061617 -6888.80997469 -5730.48707993 2579.79725479  
-6108.04106216 -9649.4863709 -7721.1884422 2115.97919634  
-6514.20024178 -11395.3514404 -8775.68032426 1658.80436041  
-6724.96916455 -12738.9987853 -9537.34429544 1209.02640311  
-6927.2312961 -13842.9788739 -10177.4029833 792.287406365  
-7178.2457362 -14759.677906 -10749.5825847 435.803183385  
-7448.70742389 -15479.7766499 -11234.9571962 151.76160237  
-7703.8125191 -16005.7301405 -11617.6759032 -70.2680498991  
-3393.22598165 -5015.75612339 -4120.40123147 2307.97224533  
-4171.42788442 -7091.07671941 -5518.62725588 2049.76650292  
-4652.18633128 -8754.79731685 -6569.42198758 1707.01874864  
-5014.42657619 -10181.1903699 -7445.85230359 1324.43023682  
-5219.13991776 -11275.5286965 -8082.38762098 932.86986937  
-5429.2071609 -12182.0142888 -8629.49851037 565.79448398  
-5673.39058719 -12936.0358219 -9118.61894046 251.862497115  
-5928.4924039 -13542.766102 -9540.91666791 4.50873631611  
-6143.33619688 -13993.972797 -9867.28140698 -184.447838187  
-2946.04487244 -5004.39937063 -3895.7176791 1696.8868998  
-3331.74014374 -6620.00085782 -4876.35309076 1554.1735167  
-3526.02319006 -7844.00454072 -5571.31358808 1301.25916773  
-3711.42517843 -8902.9641834 -6181.0507873 985.471526245  
-3884.61329225 -9781.69437409 -6696.49075651 652.08060768  
-4072.36008675 -10508.1347336 -7144.44246195 338.599005746  
-4291.27068365 -11117.5321602 -7550.31339349 73.6371340871  
-4511.70260258 -11616.8188208 -7902.97549744 -130.089391906  
-4677.34085308 -11997.3287887 -8170.58812445 -279.887870615  
-2212.43923572 -4369.89014012 -3225.34139416 1225.33037754  
-2423.05570089 -5741.92186634 -4000.83900794 1126.93738908  
-2507.1249217 -6745.16570552 -4533.62240733 926.268035091  
-2600.07366708 -7575.38674345 -4985.97560116 665.30576467  
-2707.2487567 -8251.69768528 -5369.88375657 386.854168983  
-2847.89503578 -8813.19782224 -5713.93550043 128.11095828  
-3015.9469179 -9285.26091141 -6027.59183636 -84.2836580055  
-3184.6612181 -9685.4227065 -6306.34112305 -239.622141685  
-3302.49492762 -10012.5594316 -6524.37663604 -345.712535416  
-1380.79210167 -3396.4809299 -2340.86378547 865.491644883  
-1556.77807676 -4643.818127 -3038.29213984 776.648305676  
-1604.68932344 -5515.7025216 -3488.99200407 606.07969091  
-1629.52507005 -6173.43215032 -3823.44903798 386.940832265  
-1666.68138804 -6677.95287572 -4088.87078924 157.701683834  
-1736.24789537 -7082.20796744 -4321.04337278 -47.7960419449  
-1828.69596233 -7419.67415151 -4531.70135578 -205.88911222  
-1927.42878041 -7726.03843472 -4730.19893542 -308.995132596  
-2001.24120579 -8022.2258786 -4911.49887135 -367.626096625  
-604.805094212 -2278.5253334 -1412.83190953 605.045038043  
-847.033539653 -3487.85853777 -2124.09711794 513.725605001  
-844.194439087 -4223.79605207 -2483.31534067 358.746679451  
-771.277872453 -4698.83208736 -2680.35388031 169.97609667  
-728.823029145 -5044.38580581 -2828.87232913 -17.175773261  
-719.828911853 -5305.6972052 -2952.50779736 -172.609138486  
-712.777102944 -5503.81277917 -3046.12904224 -276.033287101  
-703.101997088 -5696.5677888 -3135.83819509 -322.623368547  
-730.356857305 -5981.54335643 -3288.83110473 -328.437523192  
-253.689742418 -1408.61471797 -814.529185589 457.388562259  
-446.752658233 -2476.23043966 -1432.26171797 353.217796793  
-169.584057389 -2860.54424967 -1484.76287046 197.663279861  
36.7678965741 -3123.43905954 -1512.46886985 27.3555890432  
154.38378999 -3324.09344813 -1553.15773249 -124.288206827  
220.214953595 -3476.27549354 -1595.46966457 -233.244117182  
305.636948679 -3565.19927688 -1597.18554082 -283.243684732  
510.892141558 -3562.90050046 -1495.48409586 -269.554935475  
692.744767698 -3695.7462548 -1471.47072868 -210.045542743  
-1259.47850636 -1800.50793034 -1499.39335398 466.139478653  
-29.5087381448 -1371.97416699 -686.726623518 301.916157522  
655.987736965 -1247.92181835 -290.047699877 117.735323928  
949.709229664 -1323.3540883 -183.085980731 -42.5369158073  
1052.78197103 -1465.65288151 -202.306746136 -159.762316482  
1073.41989986 -1619.11927336 -267.392693015 -223.527403492  
1119.77994736 -1723.81649355 -295.977907631 -225.456861188  
1394.54229035 -1640.78444274 -120.658654673 -156.774895538  
2324.56641683 -1067.19361792 616.112671464 -19.6086832934  
-12125.4251679 -21413.147984 -16433.9008445 293.581158742  
-10025.6136229 -19249.3214965 -14344.7182085 210.089169815  
3846.19428148 10984.7730412 7267.1739881 2373.07698795  
-267.198145635 7783.43962637 3682.95832556 2581.17702152  
-6740.70873678 -1621.02669513 -4097.25036164 2677.64640682  
-8593.77923447 -5921.12538298 -7112.30326255 2621.15472442  
-10474.5451908 -10533.5273504 -10293.9555452 2440.65844959  
-11302.2903392 -14107.2971167 -12450.6978534 2169.48617718  
-11878.3413385 -17114.3374466 -14206.4126047 1822.27009672  
-12467.5633467 -19642.4291896 -15733.8963428 1431.3718972  
-13136.5266206 -21692.3422593 -17066.1457512 1041.46716474  
-14332.3505026 -23685.9399046 -18628.9622995 703.111334803  
-15789.9407175 -25295.031661 -20131.6364655 451.618581871  
-13360.5763857 -22627.7059606 -17634.2583497 322.63052945  
-13513.0272512 -22514.3883889 -17653.4336636 495.601130376  
-13511.9053117 -21770.6655286 -17288.4597117 685.679503237  
-13595.4353584 -20628.6388205 -16769.7963477 947.999287369  
-13758.4823948 -19107.7575668 -16104.4575812 1291.56487267  
-13794.9458726 -17054.5748099 -15116.2651345 1710.25408821  
-13692.9868741 -14554.1489609 -13841.0965592 2178.99705252  
-13940.6645471 -12194.094937 -12806.0321472 2637.01043155  
-18787.9562238 -14099.8002319 -16115.0006633 2956.12607445  
-37498.4807441 -35303.8089838 -35673.1219667 1679.80602409  
-17279.5957713 -11833.8103942 -14265.5690211 867.219869552  
-39368.2279336 -33776.9701721 -35841.1470718 952.370320312  
-7632.78414669 -788.455444792 -4126.40739983 635.293961249  
-8174.34548892 1106.1989622 -3463.39179809 1121.65965806  
-36654.7522528 -29839.3547238 -32582.1124185 1438.23972301  
-18505.875024 -10717.726234 -14319.5646165 1793.17824521  
-23037.1224707 -15493.1356377 -18879.8264731 1011.52365672  
-15913.4299104 -6848.56139598 -11153.3757401 1490.85857099  
-76155.0760787 -82087.9471046 -77539.0813598 1212.85586691  
-85424.488444 -88527.0795021 -85236.2682936 1812.41778508  
-81202.3952523 -84213.5854704 -81053.8305541 2122.73155052  
-77319.7896256 -80218.0003723 -77193.517099 2385.61377126  
-72994.9554713 -75766.7150344 -72893.2185478 2605.32597565  
-67884.5957306 -70510.1792748 -67813.4397527 2773.58848783  
-61871.1994634 -64328.3177871 -61837.7634527 2878.59599879  
-54860.202329 -57124.9856573 -54872.7421133 2907.11626685  
-46460.7794487 -48503.5683091 -46532.5304013 2842.22186199  
-35569.955526 -37385.8513345 -35748.3453617 2652.23522612  
-22036.5778463 -31329.965017 -26149.606003 459.621199502  
-39550.6025318 -47574.5320838 -42691.3159616 663.736960349  
-36577.6120815 -43445.1492601 -39211.1530574 1078.65139382  
-22084.8818121 -31107.7415372 -26064.3854412 611.798863636  
-38705.8077139 -44496.3001502 -40769.0328534 1492.60047709  
-20549.0582082 -28818.0391869 -24189.8777236 950.079137751  
-39401.1825947 -44582.5615624 -41152.034637 1908.64492648  
-20926.2844053 -28273.577261 -24107.9322165 1407.57372627  
-39837.2167861 -44341.4643582 -41247.5537607 2275.79221279  
-21683.6175974 -27816.7579986 -24255.1840421 1881.91563872  
-40340.7010065 -44003.3997074 -41328.6093498 2551.40292275  
-22864.420541 -27362.924144 -24611.3988957 2264.76136127  
-41046.3762579 -43675.0976238 -41513.522202 2689.28939199  
-24283.9520066 -26746.5108341 -25004.9267919 2468.71357608  
-42153.9832771 -43528.0597038 -41984.2010606 2656.99523694  
-25633.0701043 -25743.3514795 -25174.446576 2448.43033396  
-44240.5877153 -44013.8373048 -43244.6682598 2424.70443413  
-26652.2080162 -24085.7090055 -24861.5793407 2232.71761502  
-49021.3685224 -45884.0283997 -46503.6444918 1940.51753376  
-24070.7038307 -18776.6857279 -20995.2208837 1927.60541376  
1058.75640634 -3847.33780968 -1366.40488764 406.84853373  
-56281.7881296 -64659.6407011 -59261.300127 1015.41767029  
-51165.9891928 -59292.74149 -54124.7780346 933.319052781  
-45869.4123518 -53725.2712454 -48801.3949626 850.894775499  
-40501.6320849 -48066.8916624 -43398.5766362 771.3666186  
-35081.5091396 -42334.4882401 -37933.8387161 695.642761982  
-29608.5774133 -36526.8697341 -32406.3691022 624.85551401  
-24082.0165738 -30645.1013574 -26816.2877863 560.765452064  
-18505.5179054 -24698.2625913 -21169.8524434 505.565600892  
-12887.5483663 -18704.3111423 -15480.0111592 461.425340772  
-7238.21865644 -12686.9516477 -9763.33344902 429.85599553  
-1399.85458558 -6497.98047368 -3869.93917904 412.012608609  
1033.02184641 -3796.24772963 -1353.98068277 31.7246417902  
-826.948429564 -5157.74760401 -2932.50105645 -163.729907916  
-38314.8000798 -46465.9967949 -41542.5904686 639.947914575  
-34265.1705378 -42288.1012184 -37511.1031605 551.60488041  
-30346.8384568 -38169.0959996 -33572.8078836 462.442329685  
-26478.474239 -34073.4424272 -29670.4391665 369.606132217  
-22641.0429761 -29978.7982074 -25783.7221799 273.29243139  
-18830.9260383 -25870.4840536 -21903.690945 177.329093754  
-15048.9302621 -21741.4848303 -18027.3033953 88.9860321939  
-11297.906517 -17594.7523249 -14157.4028325 18.5958552744  
-7581.84440761 -13446.1891722 -10303.7364541 -21.6114378098  
-3901.44329157 -9323.36047905 -6480.1538476 -20.081455651  
-331.485501382 -5354.74453814 -2786.25271936 8.99102349114  
-21957.8945057 -30936.7569348 -25918.3792058 389.197826697  
-19512.7200695 -28129.2465703 -23344.5636535 259.524563095  
-17193.4917906 -25565.7044295 -20952.0061479 125.071164116  
-14896.4671321 -23010.4941084 -18574.4110078 -18.0229189834  
-12599.1133047 -20404.3911127 -16171.7171645 -163.625485876  
-10305.9699787 -17736.5562715 -13740.8378626 -302.551342347  
-8027.06979289 -15009.4924657 -11287.9155067 -422.499340833  
-5771.689959 -12233.5412519 -8822.56329332 -507.831552548  
-3546.96249077 -9429.51042582 -6358.47172913 -540.107716268  
-1375.75014667 -6651.39221714 -3933.29975827 -499.735306262  
443.064128121 -4247.19185771 -1864.0225875 -324.901186919  
</DataArray>
<DataArray type="Float64" Name="equivalent_strain" NumberOfComponents="1" format="ascii" >
0.0  
0.0  
0.0  
0.0  
0.0  
0.0  
0.0  
0.0  
0.0  
0.0  
0.0  
0.0  
0.0  
0.0  
0.0  
0.0  
0.0  
0.0  
0.0  
0.0  
0.0  
0.0  
0.0  
0.0  
0.0  
0.0  
0.0  
0.0  
0.0  
0.0  
0.0  
0.0  
0.0  
0.0  
0.0  
0.0  
0.0  
0.0  
0.0  
0.0  
0.0  
0.0  
0.0  
0.0  
0.0  
0.0  
0.0  
0.0  
0.0  
0.0  
0.0  
0.0  
0.0  
0.0  
0.0  
0.0  
0.0  
0.0  
0.0  
0.0  
0.0  
0.0  
0.0  
0.0  
0.0  
0.0  
0.0  
0.0  
0.0  
0.0  
0.0  
0.0  
0.0  
0.0  
0.0  
0.0  
0.0  
0.0  
0.0  
0.0  
0.0  
0.0  
0.0  
0.0  
0.0  
0.0  
0.0  
0.0  
0.0  
0.0  
0.0  
0.0  
0.0  
0.0  
0.0  
0.0  
0.0  
0.0  
0.0  
0.0  
0.0  
0.0  
0.0  
0.0  
0.0  
0.0  
0.0  
0.0  
0.0  
0.0  
0.0  
0.0  
0.0  
0.0  
0.0  
0.0  
0.0  
0.0  
0.0  
0.0  
0.0  
0.0  
0.0  
0.0  
0.0  
0.0  
0.0  
0.0  
0.0  
0.0  
0.0  
0.0  
0.0  
0.0  
0.0  
0.0  
0.0  
0.0  
0.0  
0.0  
0.0  
0.0  
0.0  
0.0  
0.0  
0.0  
0.0  
0.0  
0.0  
0.0  
0.0  
0.0  
0.0  
0.0  
0.0  
0.0  
0.0  
0.0  
0.0  
0.0  
0.0  
0.0  
0.0  
0.0  
0.0  
0.0  
0.0  
0.0  
0.0  
0.0  
0.0  
0.0  
0.0  
0.0  
0.0  
0.0  
0.0  
0.0  
0.0  
0.0  
0.0  
0.0  
0.0  
0.0  
0.0  
0.0  
0.0  
0.0  
0.0  
0.0  
0.0  
0.0  
0.0  
0.0  
0.0  
0.0  
0.0  
0.0  
0.0  
0.0  
0.0  
0.0  
0.0  
0.0  
0.0  
0.0  
0.0  
0.0  
0.0  
0.0  
0.0  
0.0  
0.0  
0.0  
0.0  
0.0  
0.0  
0.0  
</DataArray>
</PointData>
<CellData>
</CellData>
<Points>
<DataArray type="Float64" Name="Points" NumberOfComponents="3" format="ascii">
45.0 30.0 0.0
35.0 40.0 0.0
44.0 31.0 0.0
43.0 32.0 0.0
42.0 33.0 0.0
41.0 34.0 0.0
40.0 35.0 0.0
39.0 36.0 0.0
38.0 37.0 0.0
37.0 38.0 0.0
36.0 39.0 0.0
25.0 40.0 0.0
34.0 40.0 0.0
33.0 40.0 0.0
32.0 40.0 0.0
31.0 40.0 0.0
30.0 40.0 0.0
29.0 40.0 0.0
28.0 40.0 0.0
27.0 40.0 0.0
26.0 40.0 0.0
25.0 30.0 0.0
25.0 39.0 0.0
25.0 38.0 0.0
25.0 37.0 0.0
25.0 36.0 0.0
25.0 35.0 0.0
25.0 34.0 0.0
25.0 33.0 0.0
25.0 32.0 0.0
25.0 31.0 0.0
27.0 30.0 0.0
29.0 30.0 0.0
31.0 30.0 0.0
33.0 30.0 0.0
35.0 30.0 0.0
37.0 30.0 0.0
39.0 30.0 0.0
41.0 30.0 0.0
43.0 30.0 0.0
42.1 31.0 0.0
40.2 31.0 0.0
38.3 31.0 0.0
36.4 31.0 0.0
34.5 31.0 0.0
32.6 31.0 0.0
30.7 31.0 0.0
28.8 31.0 0.0
26.9 31.0 0.0
41.2 32.0 0.0
39.4 32.0 0.0
37.6 32.0 0.0
35.8 32.0 0.0
34.0 32.0 0.0
32.2 32.0 0.0
30.4 32.0 0.0
28.6 32.0 0.0
26.8 32.0 0.0
40.3 33.0 0.0
38.6 33.0 0.0
36.9 33.0 0.0
35.2 33.0 0.0
33.5 33.0 0.0
31.8 33.0 0.0
30.1 33.0 0.0
28.4 33.0 0.0
26.7 33.0 0.0
39.4 34.0 0.0
37.8 34.0 0.0
36.2 34.0 0.0
34.6 34.0 0.0
33.0 34.0 0.0
31.4 34.0 0.0
29.8 34.0 0.0
28.2 34.0 0.0
26.6 34.0 0.0
38.5 35.0 0.0
37.0 35.0 0.0
35.5 35.0 0.0
34.0 35.0 0.0
32.5 35.0 0.0
31.0 35.0 0.0
29.5 35.0 0.0
28.0 35.0 0.0
26.5 35.0 0.0
37.6 36.0 0.0
36.2 36.0 0.0
34.8 36.0 0.0
33.4 36.0 0.0
32.0 36.0 0.0
30.6 36.0 0.0
29.2 36.0 0.0
27.8 36.0 0.0
26.4 36.0 0.0
36.7 37.0 0.0
35.4 37.0 0.0
34.1 37.0 0.0
32.8 37.0 0.0
31.5 37.0 0.0
30.2 37.0 0.0
28.9 37.0 0.0
27.6 37.0 0.0
26.3 37.0 0.0
35.8 38.0 0.0
34.6 38.0 0.0
33.4 38.0 0.0
32.2 38.0 0.0
31.0 38.0 0.0
29.8 38.0 0.0
28.6 38.0 0.0
27.4 38.0 0.0
26.2 38.0 0.0
34.9 39.0 0.0
33.8 39.0 0.0
32.7 39.0 0.0
31.6 39.0 0.0
30.5 39.0 0.0
29.4 39.0 0.0
28.3 39.0 0.0
27.2 39.0 0.0
26.1 39.0 0.0
25.0 28.0 0.0
25.0 29.0 0.0
45.0 28.0 0.0
45.0 29.0 0.0
43.0 28.0 0.0
41.0 28.0 0.0
39.0 28.0 0.0
37.0 28.0 0.0
35.0 28.0 0.0
33.0 28.0 0.0
31.0 28.0 0.0
29.0 28.0 0.0
27.0 28.0 0.0
27.0 29.0 0.0
29.0 29.0 0.0
31.0 29.0 0.0
33.0 29.0 0.0
35.0 29.0 0.0
37.0 29.0 0.0
39.0 29.0 0.0
41.0 29.0 0.0
43.0 29.0 0.0
75.0 0.0 0.0
75.0 30.0 0.0
75.0 15.0 0.0
57.8571428571 30.0 0.0
49.2857142857 30.0 0.0
57.8571428571 16.0 0.0
49.2857142857 24.0 0.0
57.8571428571 23.0 0.0
49.2857142857 27.0 0.0
0.0 0.0 0.0
7.5 0.0 0.0
15.0 0.0 0.0
22.5 0.0 0.0
30.0 0.0 0.0
37.5 0.0 0.0
45.0 0.0 0.0
52.5 0.0 0.0
60.0 0.0 0.0
67.5 0.0 0.0
21.4285714286 24.0 0.0
14.2857142857 16.0 0.0
18.6428571429 16.0 0.0
24.2142857143 24.0 0.0
23.0 16.0 0.0
27.0 24.0 0.0
27.3571428571 16.0 0.0
29.7857142857 24.0 0.0
31.7142857143 16.0 0.0
32.5714285714 24.0 0.0
36.0714285714 16.0 0.0
35.3571428571 24.0 0.0
40.4285714286 16.0 0.0
38.1428571429 24.0 0.0
44.7857142857 16.0 0.0
40.9285714286 24.0 0.0
49.1428571429 16.0 0.0
43.7142857143 24.0 0.0
53.5 16.0 0.0
46.5 24.0 0.0
0.0 40.0 0.0
0.0 3.33333333333 0.0
0.0 6.66666666667 0.0
0.0 10.0 0.0
0.0 13.3333333333 0.0
0.0 16.6666666667 0.0
0.0 20.0 0.0
0.0 23.3333333333 0.0
0.0 26.6666666667 0.0
0.0 30.0 0.0
0.0 33.3333333333 0.0
0.0 36.6666666667 0.0
14.2857142857 40.0 0.0
21.4285714286 40.0 0.0
14.2857142857 18.0 0.0
14.2857142857 20.0 0.0
14.2857142857 22.0 0.0
14.2857142857 24.0 0.0
14.2857142857 26.0 0.0
14.2857142857 28.0 0.0
14.2857142857 30.0 0.0
14.2857142857 32.0 0.0
14.2857142857 34.0 0.0
14.2857142857 36.0 0.0
14.2857142857 38.0 0.0
21.4285714286 25.3333333333 0.0
21.4285714286 26.6666666667 0.0
21.4285714286 28.0 0.0
21.4285714286 29.3333333333 0.0
21.4285714286 30.6666666667 0.0
21.4285714286 32.0 0.0
21.4285714286 33.3333333333 0.0
21.4285714286 34.6666666667 0.0
21.4285714286 36.0 0.0
21.4285714286 37.3333333333 0.0
21.4285714286 38.6666666667 0.0
</DataArray>
</Points>
<Cells>
<DataArray type="Int64" Name="connectivity" format="ascii">
0 2 40 39 
2 3 49 40 
3 4 58 49 
4 5 67 58 
5 6 76 67 
6 7 85 76 
7 8 94 85 
8 9 103 94 
9 10 112 103 
10 1 12 112 
39 40 41 38 
40 49 50 41 
49 58 59 50 
58 67 68 59 
67 76 77 68 
76 85 86 77 
85 94 95 86 
94 103 104 95 
103 112 113 104 
112 12 13 113 
38 41 42 37 
41 50 51 42 
50 59 60 51 
59 68 69 60 
68 77 78 69 
77 86 87 78 
86 95 96 87 
95 104 105 96 
104 113 114 105 
113 13 14 114 
37 42 43 36 
42 51 52 43 
51 60 61 52 
60 69 70 61 
69 78 79 70 
78 87 88 79 
87 96 97 88 
96 105 106 97 
105 114 115 106 
114 14 15 115 
36 43 44 35 
43 52 53 44 
52 61 62 53 
61 70 71 62 
70 79 80 71 
79 88 89 80 
88 97 98 89 
97 106 107 98 
106 115 116 107 
115 15 16 116 
35 44 45 34 
44 53 54 45 
53 62 63 54 
62 71 72 63 
71 80 81 72 
80 89 90 81 
89 98 99 90 
98 107 108 99 
107 116 117 108 
116 16 17 117 
34 45 46 33 
45 54 55 46 
54 63 64 55 
63 72 73 64 
72 81 82 73 
81 90 91 82 
90 99 100 91 
99 108 109 100 
108 117 118 109 
117 17 18 118 
33 46 47 32 
46 55 56 47 
55 64 65 56 
64 73 74 65 
73 82 83 74 
82 91 92 83 
91 100 101 92 
100 109 110 101 
109 118 119 110 
118 18 19 119 
32 47 48 31 
47 56 57 48 
56 65 66 57 
65 74 75 66 
74 83 84 75 
83 92 93 84 
92 101 102 93 
101 110 111 102 
110 119 120 111 
119 19 20 120 
31 48 30 21 
48 57 29 30 
57 66 28 29 
66 75 27 28 
75 84 26 27 
84 93 25 26 
93 102 24 25 
102 111 23 24 
111 120 22 23 
120 20 11 22 
121 133 134 122 
133 132 135 134 
132 131 136 135 
131 130 137 136 
130 129 138 137 
129 128 139 138 
128 127 140 139 
127 126 141 140 
126 125 142 141 
125 123 124 142 
122 134 31 21 
134 135 32 31 
135 136 33 32 
136 137 34 33 
137 138 35 34 
138 139 36 35 
139 140 37 36 
140 141 38 37 
141 142 39 38 
142 124 0 39 
143 145 150 148 
145 144 146 150 
148 150 151 149 
150 146 147 151 
149 151 124 123 
151 147 0 124 
152 153 164 163 
153 154 166 164 
154 155 168 166 
155 156 170 168 
156 157 172 170 
157 158 174 172 
158 159 176 174 
159 160 178 176 
160 161 180 178 
161 143 148 180 
163 164 165 162 
164 166 167 165 
166 168 169 167 
168 170 171 169 
170 172 173 171 
172 174 175 173 
174 176 177 175 
176 178 179 177 
178 180 181 179 
180 148 149 181 
162 165 133 121 
165 167 132 133 
167 169 131 132 
169 171 130 131 
171 173 129 130 
173 175 128 129 
175 177 127 128 
177 179 126 127 
179 181 125 126 
181 149 123 125 
152 163 196 183 
163 162 207 196 
162 121 122 207 
183 196 197 184 
196 207 208 197 
207 122 21 208 
184 197 198 185 
197 208 209 198 
208 21 30 209 
185 198 199 186 
198 209 210 199 
209 30 29 210 
186 199 200 187 
199 210 211 200 
210 29 28 211 
187 200 201 188 
200 211 212 201 
211 28 27 212 
188 201 202 189 
201 212 213 202 
212 27 26 213 
189 202 203 190 
202 213 214 203 
213 26 25 214 
190 203 204 191 
203 214 215 204 
214 25 24 215 
191 204 205 192 
204 215 216 205 
215 24 23 216 
192 205 206 193 
205 216 217 206 
216 23 22 217 
193 206 194 182 
206 217 195 194 
217 22 11 195 
</DataArray>
<DataArray type="Int64" Name="offsets" format="ascii">
4
8
12
16
20
24
28
32
36
40
44
48
52
56
60
64
68
72
76
80
84
88
92
96
100
104
108
112
116
120
124
128
132
136
140
144
148
152
156
160
164
168
172
176
180
184
188
192
196
200
204
208
212
216
220
224
228
232
236
240
244
248
252
256
260
264
268
272
276
280
284
288
292
296
300
304
308
312
316
320
324
328
332
336
340
344
348
352
356
360
364
368
372
376
380
384
388
392
396
400
404
408
412
416
420
424
428
432
436
440
444
448
452
456
460
464
468
472
476
480
484
488
492
496
500
504
508
512
516
520
524
528
532
536
540
544
548
552
556
560
564
568
572
576
580
584
588
592
596
600
604
608
612
616
620
624
628
632
636
640
644
648
652
656
660
664
668
672
676
680
684
688
692
696
700
704
708
712
716
720
724
728
732
736
740
744
748
752
756
760
764
768
</DataArray>
<DataArray type="UInt8" Name="types" format="ascii" RangeMin="9" RangeMax="9">
9
9
9
9
9
9
9
9
9
9
9
9
9
9
9
9
9
9
9
9
9
9
9
9
9
9
9
9
9
9
9
9
9
9
9
9
9
9
9
9
9
9
9
9
9
9
9
9
9
9
9
9
9
9
9
9
9
9
9
9
9
9
9
9
9
9
9
9
9
9
9
9
9
9
9
9
9
9
9
9
9
9
9
9
9
9
9
9
9
9
9
9
9
9
9
9
9
9
9
9
9
9
9
9
9
9
9
9
9
9
9
9
9
9
9
9
9
9
9
9
9
9
9
9
9
9
9
9
9
9
9
9
9
9
9
9
9
9
9
9
9
9
9
9
9
9
9
9
9
9
9
9
9
9
9
9
9
9
9
9
9
9
9
9
9
9
9
9
9
9
9
9
9
9
9
9
9
9
9
9
9
9
9
9
9
9
9
9
9
9
9
9
</DataArray>
</Cells>
</Piece>
</UnstructuredGrid>
</VTKFile>
