<?xml version="1.0"?>
<VTKFile type="UnstructuredGrid" version="0.1" byte_order="LittleEndian" compressor="vtkZLibDataCompressor">
<UnstructuredGrid>
<Piece NumberOfPoints="218" NumberOfCells="192">
<PointData>
<DataArray type="Float64" Name="displacement" NumberOfComponents="3" format="ascii" >
0.0577479115506 -0.00879675259396  0.
0.0341253673681 -0.0542964876951  0.
0.0625041570043 -0.0118158253467  0.
0.0628409780173 -0.0158374259293  0.
0.0613428773681 -0.0202865393504  0.
0.058628084516 -0.0250375993103  0.
0.055083897594 -0.0300006898571  0.
0.0509978582087 -0.0350836903691  0.
0.0466098987888 -0.0401788865385  0.
0.0421437936193 -0.045159004751  0.
0.0378442950946 -0.0498841758055  0.
0.0305763059468 -0.0786603134467  0.
0.0342017451793 -0.0585913359287  0.
0.0340310056688 -0.0623043311532  0.
0.0337584800542 -0.0655159640487  0.
0.0334267995879 -0.0682784438608  0.
0.0330547053116 -0.0706428791864  0.
0.0326496317594 -0.072663577466  0.
0.0322139018113 -0.0744003043815  0.
0.0317446541108 -0.0759189513469  0.
0.0312254445793 -0.0772954652211  0.
0.0405160379851 -0.0603408057474  0.
0.0314309651031 -0.0777289461749  0.
0.0324487015064 -0.0765457674557  0.
0.0335820088802 -0.0751469725098  0.
0.0347554588705 -0.0735408123709  0.
0.0359129706231 -0.0717402613855  0.
0.0370120186696 -0.0697622704286  0.
0.0380232268893 -0.0676250735531  0.
0.038936758689 -0.0653403485851  0.
0.0397641645365 -0.0629080793362  0.
0.0451636740973 -0.0585090290417  0.
0.0497250652209 -0.0560180231503  0.
0.0539501879674 -0.0527680575394  0.
0.0576330501253 -0.048697240736  0.
0.0606024232692 -0.0437216768548  0.
0.0626873643744 -0.0378710909196  0.
0.0637141151134 -0.0313203853912  0.
0.0634789329847 -0.0243139606875  0.
0.0617156059171 -0.0170468308916  0.
0.0634968602427 -0.019853605336  0.
0.0636065085113 -0.0273309635393  0.
0.0628139682436 -0.0344248027843  0.
0.0611726543285 -0.0409528157881  0.
0.0587709749357 -0.0467172719215  0.
0.0557220522804 -0.0515976507553  0.
0.0521587253847 -0.0555966516916  0.
0.0482135691598 -0.0587876408407  0.
0.0440190814041 -0.0612010633815  0.
0.0629099279213 -0.0236314591974  0.
0.0622539585427 -0.030997545544  0.
0.0609562700235 -0.0379519349602  0.
0.0590222448351 -0.0442886831018  0.
0.0565163522782 -0.0498453887826  0.
0.0535276901385 -0.0545370446708  0.
0.0501683333862 -0.0583824185995  0.
0.0465506168184 -0.0614513704634  0.
0.0427653393605 -0.0637582224571  0.
0.0609984620861 -0.0278719580706  0.
0.0599898409648 -0.0350252627328  0.
0.0584465792664 -0.0417112832101  0.
0.0564111777235 -0.0477510277258  0.
0.0539431461574 -0.053015416585  0.
0.0511207287013 -0.0574498188122  0.
0.0480368911442 -0.0610825645638  0.
0.0447828181898 -0.0639790269704  0.
0.0414238511118 -0.0661540210938  0.
0.0581159622412 -0.0323827553611  0.
0.0569929142699 -0.0392432592001  0.
0.0554064270385 -0.0455738578111  0.
0.0534240986344 -0.0512391697128  0.
0.0511129640907 -0.056148864662  0.
0.0485445228075 -0.0602748901142  0.
0.0457954487223 -0.0636535274615  0.
0.0429339447863 -0.0663470305615  0.
0.0399991785246 -0.0683768534212  0.
0.0545407176577 -0.0370320124197  0.
0.0534530581677 -0.0435188182002  0.
0.051964457332 -0.0494253100814  0.
0.0501536500374 -0.0546608397626  0.
0.0480903273792 -0.0591722876706  0.
0.0458400387585 -0.0629557703047  0.
0.043464163608 -0.0660552491743  0.
0.0410097519483 -0.0685325920867  0.
0.0384941494791 -0.0704182945797  0.
0.0505087571584 -0.0417051217819  0.
0.04955470797 -0.0477393634985  0.
0.0482603402166 -0.0531662038834  0.
0.0467031225524 -0.0579334797808  0.
0.0449502174004 -0.0620200384455  0.
0.0430598241786 -0.0654427156098  0.
0.0410794453462 -0.0682530913532  0.
0.0390380652358 -0.0705144165093  0.
0.0369363142339 -0.0722655326183  0.
0.0462354789278 -0.0462909776349  0.
0.0454805430112 -0.051804420296  0.
0.044440830427 -0.0567103544126  0.
0.0431863378601 -0.0609858197159  0.
0.0417794759698 -0.0646351800781  0.
0.0402704764006 -0.0676921778989  0.
0.0386948783613 -0.0702153261782  0.
0.0370667611314 -0.0722702805107  0.
0.035372565763 -0.0739020076331  0.
0.0419343059527 -0.0506808316662  0.
0.0414169061274 -0.0556262510573  0.
0.0406574391314 -0.0599858016804  0.
0.0397242240883 -0.0637583859505  0.
0.0386745845887 -0.0669696945817  0.
0.0375501569574 -0.0696661741804  0.
0.0363763071655 -0.0719115816192  0.
0.0351568007791 -0.0737750091302  0.
0.0338639230316 -0.0753080748986  0.
0.0378406547711 -0.0547854206131  0.
0.0375501776959 -0.0591396952036  0.
0.0370578332672 -0.0629358758704  0.
0.0364372917817 -0.0662031637057  0.
0.0357359085158 -0.0689836842172  0.
0.0349834819707 -0.0713319818151  0.
0.0341954279306 -0.0733135246648  0.
0.033370321808 -0.0749988608189  0.
0.0324778353978 -0.0764542590285  0.
0.041841543314 -0.0549390733864  0.
0.041205199128 -0.0576635226728  0.
0.0586914095316 -0.0133005532417  0.
0.0581589379752 -0.0113084002057  0.
0.0620775071578 -0.0192150397538  0.
0.0642565200015 -0.0249823350382  0.
0.0651787139217 -0.0305934671788  0.
0.0646706886814 -0.0358552356666  0.
0.0628109329309 -0.0405846260327  0.
0.0598156466921 -0.0446429525618  0.
0.0559535761168 -0.047984686606  0.
0.0514638795917 -0.050725553395  0.
0.0466336494883 -0.0530048749242  0.
0.045973444921 -0.0558056821994  0.
0.0506859239052 -0.0534268731671  0.
0.055043401583 -0.0504240731604  0.
0.0587859946824 -0.0467027341188  0.
0.0617266848988 -0.0421611612821  0.
0.0636790757639 -0.0368364633688  0.
0.0644632427519 -0.0308958663345  0.
0.0639527244146 -0.0245929826309  0.
0.0620288583806 -0.0181273411657  0.
0.0 0.0  0.
0.0 0.0342285699432  0.
0.0 0.0145195927698  0.
0.0270552096621 0.0199384352344  0.
0.0451648370289 0.0054852986329  0.
0.0358487296237 -0.00627641466876  0.
0.0521217406922 -0.00890504787157  0.
0.0320481636742 0.0071805324045  0.
0.0491930515535 -0.0020886775545  0.
0.0 0.0  0.
0.0 0.0  0.
0.0 0.0  0.
0.0 0.0  0.
0.0 0.0  0.
0.0 0.0  0.
0.0 0.0  0.
0.0 0.0  0.
0.0 0.0  0.
0.0 0.0  0.
0.0357162827793 -0.047152687097  0.
0.0225877075314 -0.0306268822243  0.
0.0301366090392 -0.0277338135059  0.
0.0421474097238 -0.0444514494104  0.
0.0355683423277 -0.0264605205888  0.
0.0479163069992 -0.0422558304256  0.
0.0402276188722 -0.0253042789804  0.
0.0530151833551 -0.0400161136266  0.
0.0441547933343 -0.0240176191535  0.
0.0573616145753 -0.0373289625217  0.
0.0471683094738 -0.0224768821088  0.
0.0606511283973 -0.0340394075447  0.
0.0490161747196 -0.0206534756963  0.
0.0625411089117 -0.0301674024108  0.
0.0494466292639 -0.0185249861153  0.
0.0627651928977 -0.0257837766591  0.
0.0481442016195 -0.0159622869325  0.
0.0611510358023 -0.0209073532007  0.
0.0445061436182 -0.0126202664805  0.
0.0574473588918 -0.0152509540791  0.
0.0 -0.0849471162178  0.
0.0 -0.00959526005859  0.
0.0 -0.0187629102371  0.
0.0 -0.0275050472957  0.
0.0 -0.0358231784254  0.
0.0 -0.0436989738924  0.
0.0 -0.051111631926  0.
0.0 -0.0580381119934  0.
0.0 -0.0644572310547  0.
0.0 -0.0703542833194  0.
0.0 -0.0757262316138  0.
0.0 -0.0805865466439  0.
0.0183124599718 -0.0792223561696  0.
0.0271310103013 -0.0796659736215  0.
0.0223166752279 -0.0361014295407  0.
0.0221040160711 -0.0412485463752  0.
0.0219354838216 -0.0461132420883  0.
0.0217170553371 -0.0507799273937  0.
0.0214297498208 -0.0552464990115  0.
0.0210605735938 -0.0594981329375  0.
0.0206104301057 -0.0635102266133  0.
0.0200961877474 -0.0672535124732  0.
0.0195539138753 -0.0707005149681  0.
0.0190398025196 -0.0738342874986  0.
0.01862745938 -0.0766582173332  0.
0.034971286131 -0.0510654006988  0.
0.0344381503119 -0.054579080137  0.
0.0339325934875 -0.0578793626289  0.
0.0333899013721 -0.0610139091424  0.
0.03274367092 -0.0640222173023  0.
0.0319880764673 -0.066886557087  0.
0.0311314621916 -0.0695805592188  0.
0.0302013337705 -0.0720740593117  0.
0.0292444038867 -0.0743397323267  0.
0.0283286372762 -0.0763583354234  0.
0.0275444251638 -0.0781260399275  0.
</DataArray>
<DataArray type="Float64" Name="stresses" NumberOfComponents="4" format="ascii" >
-110486.805498 -64458.028071 -86383.6501993 22710.0592931  
-63437.6577423 -63971.0205541 -62430.2523652 3379.49820377  
53299.1776875 65793.7136028 59077.723112 32499.4300505  
16526.7060543 18323.4839412 17079.0022713 24774.2660085  
22916.9234725 18350.5563964 20221.0651357 17148.5133211  
21293.5975221 13417.4534188 17008.414961 11941.6431689  
13306.6426924 3934.48844098 8448.15425534 8279.34000746  
1475.91027967 -8046.05908632 -3219.37291526 5653.08333137  
-11277.4208513 -19658.1334806 -15158.4216227 3788.798123  
-21593.7055994 -27311.3459363 -23963.4752525 2664.25677614  
-34636.6768377 -36193.0835498 -34706.5825898 3046.92619765  
-31250.3935641 -54698.9985651 -42115.2021433 -122.392902077  
-48913.9667264 -52242.3407405 -49566.5906588 2766.11404349  
-52141.897682 -60402.6070737 -55146.8073303 847.444119744  
-55439.3693863 -66070.7477332 -59539.9573886 -635.771681793  
-54192.7504991 -66157.6343075 -58971.6885552 -1545.82775295  
-50183.0767782 -63000.1469457 -55459.7796247 -1944.77057371  
-45089.1786482 -58573.3912922 -50794.6592708 -1903.53423062  
-40271.335428 -54438.3115867 -46407.7270372 -1449.9365161  
-36594.5855475 -51757.5014696 -43292.5226384 -527.653753438  
-29987.250964 -47349.3506755 -37894.9348034 1174.78877711  
-63472.288617 -124110.825408 -92092.1155421 981.318887915  
14986.5374955 -13559.8274773 699.087908912 -1606.10863049  
7650.13486897 -26720.6100133 -9344.53282071 -3044.31335207  
3034.90574406 -36703.2787295 -16497.5027629 -3788.19104374  
-2857.71709019 -47635.3431486 -24741.599517 -3921.21662403  
-9785.25077359 -59166.1260124 -33786.1746251 -3597.35795892  
-17633.9189111 -71116.0400728 -43487.4799021 -2925.8102184  
-26504.3756929 -83700.7815798 -54000.8361611 -2014.68870318  
-37781.2823092 -96473.5784541 -65840.9756428 -956.005726178  
-50056.9142404 -109803.074473 -78446.7907428 79.4698667043  
-84125.9460813 -144645.023817 -112301.646877 1338.52900009  
-84336.2526035 -143781.458111 -111918.887828 2641.06986697  
-83979.9266557 -140730.260497 -110126.365312 4546.63473162  
-87035.6426188 -136136.346954 -109354.27489 7126.13916167  
-94450.0928805 -132899.562433 -111401.331103 10361.2543626  
-105228.482586 -130800.929143 -115654.411748 13954.456151  
-123236.064537 -133636.572634 -125867.592214 17663.1096978  
-153111.953927 -145545.008142 -146321.400309 21479.3962381  
-200858.704152 -171790.154784 -183074.956433 25292.9175724  
24239.1383163 31943.2785999 27743.587195 26532.7597629  
-30739.6454607 -36667.8537189 -33061.7088426 22976.1238892  
-47348.4597109 -66742.2201089 -55904.4331117 17789.5463159  
-53643.7851934 -84923.8412239 -67898.1369445 13681.7334948  
-55843.934479 -97384.129323 -75081.751263 9894.16628553  
-57481.8572444 -107482.515042 -80832.5424204 6572.93921196  
-60378.0399297 -116514.522103 -86688.900729 3961.69351593  
-64266.3726848 -123017.179475 -91845.5746608 2046.89176919  
-68066.9993058 -127696.789646 -96051.5172076 678.480447943  
-17691.4846372 -22790.6359115 -19836.5618369 20850.4426296  
-34073.4109172 -50257.7876195 -41322.287283 17453.1394982  
-41768.468132 -68012.1759631 -53792.5156066 14326.2437909  
-44303.4287975 -79863.4001436 -60841.7461811 11153.3270625  
-45327.1826122 -88971.609523 -65806.4081463 8023.26456648  
-46785.5018688 -96999.5147076 -70454.6581224 5207.44697261  
-49024.4799519 -104135.627647 -75048.3730907 2961.38917523  
-51599.871716 -109292.513539 -78861.6287983 1263.37098657  
-55419.1574776 -113937.295952 -83039.7994203 -33.9971378738  
-20654.4815901 -32352.12545 -25973.2374496 15392.2199261  
-28766.08886 -50459.7105505 -38820.6417111 13680.617201  
-31815.7242158 -61918.1098776 -45929.5787058 11434.2959401  
-33658.6618147 -71301.7105611 -51430.5824642 8859.5448983  
-34811.7745247 -78857.5435953 -55697.9658788 6235.00224006  
-36582.2104931 -85675.1878291 -59906.1251779 3867.70387656  
-38902.3939453 -91579.0437362 -63935.9044639 1969.96741901  
-40707.1519823 -95722.8840817 -66849.8344894 486.900210875  
-43236.1770461 -99489.1582685 -69936.8960627 -747.726853387  
-17899.3424654 -32606.9865748 -24748.1012297 11199.4300612  
-22543.6002392 -46643.2174273 -33901.5406566 10271.445424  
-23771.0409385 -55285.2927677 -38737.603516 8646.42642629  
-24731.9436783 -62500.2045051 -42743.7526099 6586.8989026  
-25857.952014 -68701.6916095 -46334.2253755 4432.55308959  
-27664.9139822 -74342.3455422 -49983.5571669 2485.67534412  
-29840.0565415 -79123.42428 -53392.1056026 925.423318209  
-31145.3878046 -82076.5438695 -55478.7465203 -320.354347997  
-32131.3520816 -84178.5463478 -56991.8502304 -1425.24351171  
-13276.5719738 -28709.2710503 -20573.0630818 7994.7813978  
-16109.7784931 -40298.2382123 -27639.9281856 7378.21367105  
-16671.9587148 -47494.6258395 -31441.6264316 6119.47183688  
-17191.7405354 -53293.0388227 -34537.5418855 4460.7615187  
-18039.042202 -58197.6610416 -37355.9845894 2711.05201959  
-19504.8385305 -62585.7131877 -40224.3703419 1141.43958374  
-21149.2457094 -66166.8479089 -42784.885873 -100.844853253  
-21891.7046341 -68217.7178123 -44153.6169988 -1084.89909072  
-22131.7048549 -69623.4430908 -44960.0224934 -1961.16468655  
-7983.99327684 -22446.5777474 -14910.9798019 5583.38653272  
-10126.5739507 -32564.5076241 -20918.6299717 5039.78465861  
-10488.9750974 -38850.7051304 -24176.4433116 3985.43883527  
-10663.5029275 -43526.6143283 -26553.1574554 2616.71499869  
-11087.0178288 -47234.922744 -28577.7508807 1201.86510931  
-11960.5652029 -50375.9904997 -30544.9122943 -26.8218700276  
-12877.7911974 -52811.4399014 -32187.7232384 -947.384388541  
-13077.9522889 -54207.359471 -32969.8027624 -1623.32651169  
-13036.6860764 -55525.6561923 -33595.5477117 -2194.58986584  
-3026.99439326 -15086.6819939 -8875.70142973 3874.52702207  
-5309.5078045 -24482.1111759 -14597.8933004 3312.2401937  
-5348.19322615 -29793.0828987 -17219.2253012 2352.66686031  
-4909.28298723 -33212.0484534 -18679.4524059 1179.20675472  
-4782.75524062 -35768.7307056 -19870.2281137 33.3638165527  
-4991.62944005 -37769.1011512 -20952.7579897 -885.320002978  
-5062.11776784 -39099.9959662 -21639.4357297 -1473.96901081  
-4547.89905686 -39813.2299911 -21736.9532335 -1788.23396617  
-4277.68551004 -41237.8786327 -22302.6264299 -1986.31732009  
-970.672773371 -9364.08944029 -5064.0334847 2954.5883818  
-2678.06209482 -17425.0230703 -9850.51173093 2291.71670732  
-835.82626897 -20261.6937491 -10337.7848089 1306.32313879  
496.201488242 -22196.0925165 -10632.9466039 234.760097539  
1170.24840455 -23684.2355261 -11031.8536896 -697.692473291  
1464.01847325 -24801.0521601 -11435.1465066 -1333.87336452  
2051.42108529 -25277.3272032 -11380.6939978 -1589.60097214  
3907.04417178 -24704.1923433 -10190.602604 -1496.81967831  
5581.41914943 -25188.0784029 -9607.2630342 -1212.48303862  
-8323.37134177 -12378.3221617 -10143.8298167 3124.42707073  
22.2483440719 -9788.54646087 -4785.48607723 2023.36110008  
4666.67200916 -9083.61026986 -2164.29974774 808.451555647  
6603.86915463 -9684.94916982 -1509.72920745 -230.934833473  
7213.11936502 -10701.916947 -1709.51081519 -968.158209401  
7273.31558318 -11722.5847996 -2180.14191602 -1336.07681531  
7672.82505525 -12213.3059032 -2224.83561551 -1292.54236274  
10011.302002 -11081.3582401 -524.32755669 -816.985514532  
17109.7135389 -6452.79207795 5221.89151588 57.9690143363  
-87875.4583153 -149337.144469 -116499.11161 1880.99164282  
-71090.6360412 -132325.400942 -99890.2050655 1628.84352585  
35209.1080921 85701.3266514 59244.0032563 16232.8317544  
8766.57495217 61353.0817825 34416.7799657 16282.3968103  
-49836.9213606 -13370.4872801 -30959.6020189 19112.0207037  
-60284.6756675 -41349.2637511 -49800.6303151 18679.6536947  
-74369.7595491 -74440.3533309 -72916.9553112 17456.4207501  
-80603.4294474 -99921.70724 -88457.3169768 15557.9438628  
-84570.1661619 -121020.996365 -100739.669638 13079.5352843  
-87975.3435284 -138397.130251 -110909.626486 10269.3558788  
-93664.8472255 -151265.878585 -120116.761471 6986.81122185  
-103192.793285 -163717.89212 -131062.337091 4318.30909674  
-114616.280318 -176308.639445 -142907.286965 2624.04154668  
-97426.8882172 -158692.098326 -125776.877948 1936.92473017  
-96915.1223812 -157134.226108 -124696.363674 2923.77971064  
-94109.3309606 -151953.630272 -120604.811168 4473.4713613  
-94738.5692816 -144405.725858 -117178.963029 6543.14566706  
-97120.5459987 -134594.313535 -113540.281172 9143.03930604  
-97297.5910911 -120009.901021 -106480.671135 12246.0508953  
-96110.5765696 -101907.506353 -97028.8606321 15627.9918141  
-98410.9338464 -85756.1248785 -90241.8587752 18814.3475424  
-139111.301044 -105340.163087 -119890.714609 20889.4561232  
-263335.032678 -247810.689131 -250461.403686 11834.8412902  
-121594.902262 -83324.9622741 -100410.733623 5980.85139056  
-275991.822818 -236693.198539 -251215.660465 6601.96348844  
-56683.3585068 -8139.17326264 -31764.786311 4284.36265988  
-52833.946248 7069.6089525 -22627.0530409 6854.63263377  
-259940.785214 -211962.31029 -231261.206442 10095.6729225  
-128038.257256 -75067.0883197 -99651.2478081 12109.6774977  
-162681.952632 -109211.539898 -133238.219397 6942.6823557  
-104471.745361 -45861.6635278 -73837.4196731 9290.29701011  
-534530.426219 -574753.309921 -543769.274413 8436.99997863  
-596652.635115 -618292.624069 -595323.177 12890.7749644  
-567167.634778 -588208.136515 -566134.127934 15053.5686606  
-540660.494775 -560933.551554 -539781.082701 16882.384153  
-511017.405905 -530424.533413 -510306.550266 18414.598502  
-475432.942214 -493822.254646 -474935.046461 19590.8618342  
-433288.623883 -450497.665132 -433055.281618 20324.767586  
-384155.027558 -400017.082239 -384244.333801 20522.3325149  
-325234.999561 -339542.545458 -325740.99706 20064.0166824  
-248547.584421 -261262.352597 -249806.869139 18723.6148514  
-158412.31542 -220032.823913 -185909.985263 2940.72149027  
-277484.387529 -334221.620468 -299937.666587 4610.6130028  
-255479.625437 -303802.909482 -274065.405633 7826.72611824  
-156975.759113 -217128.070414 -183605.708729 4138.60667214  
-271534.490674 -311905.712284 -285885.433441 10719.3782917  
-146232.925728 -203444.265163 -171400.000327 6800.56529581  
-276166.246764 -312320.001862 -288358.261827 13606.2678715  
-147642.047489 -199520.87269 -170085.19851 10198.432448  
-279128.88024 -310634.359242 -288983.987346 16179.4281002  
-152772.657407 -195586.887781 -170699.005067 13482.5453047  
-282404.860547 -308042.845407 -289319.375918 18124.1163044  
-160611.89333 -191991.26038 -172775.545318 16221.7637365  
-287242.281207 -305624.577524 -290504.760778 19088.3302796  
-170363.574652 -187430.278611 -175318.988099 17641.3751019  
-295083.577494 -304662.601248 -293875.627584 18852.9459505  
-179569.907627 -180158.454315 -176266.897352 17463.4289938  
-310087.737926 -308411.232918 -303064.495714 17221.0734619  
-186582.913227 -168421.310044 -173952.069403 15945.7633147  
-344179.156391 -321955.088886 -326405.780186 13816.2121794  
-169123.821325 -131755.517321 -147430.847601 13839.0242898  
8009.88524131 -26778.1566437 -9196.45298719 2756.95554347  
-397914.225419 -454449.578163 -417980.017471 6793.32322543  
-359997.350771 -416160.867977 -380419.780785 6293.75689269  
-321469.15961 -376510.551059 -342010.058228 5789.54437067  
-283615.576242 -336670.097962 -303939.98036 5246.74588886  
-245440.577478 -296363.5956 -265484.044808 4732.61532234  
-207016.628261 -255650.331788 -226706.810424 4251.96571323  
-168283.264565 -214476.678478 -187552.372091 3814.82884449  
-129244.263158 -172882.475873 -148042.102125 3436.3301841  
-89943.8669068 -130981.267643 -108253.315929 3132.38972088  
-50455.1806665 -88948.6676923 -68307.8856958 2914.52625073  
-9675.67782946 -45759.9304094 -27163.448037 2791.25585591  
7464.34140789 -26698.4514529 -9424.71392204 163.18524838  
-6634.64783739 -37028.4442684 -21394.9151318 -1227.8298697  
-268376.270084 -326038.95022 -291453.725943 4230.73718656  
-239340.597027 -295864.228107 -262274.741694 3615.65126417  
-212130.275431 -266832.742391 -234686.758551 3023.18027818  
-185025.20416 -238054.107603 -207308.862764 2411.51010201  
-158184.84265 -209488.736359 -180160.053714 1768.07019498  
-131497.282419 -180820.099173 -153035.51698 1109.56263584  
-105049.325345 -152042.281347 -125974.887279 490.9374678  
-78843.4846841 -123141.293636 -98972.541377 -7.96803627966  
-52905.5208217 -94221.7319389 -72092.3538527 -291.616328706  
-27261.125241 -65505.6878033 -45455.7383917 -268.197391637  
-2486.70014841 -37968.0932862 -19822.848783 -27.0202437486  
-153923.425958 -214621.104291 -180965.029862 2542.33388016  
-135347.396446 -194322.769194 -161712.741505 1714.90918144  
-118746.340615 -176909.550964 -144918.789329 806.005370089  
-102857.475352 -159730.98768 -128658.107954 -191.767520336  
-87526.1132698 -142019.902929 -112477.39647 -1225.79908336  
-71833.6757226 -123870.748509 -95895.1678737 -2226.59543301  
-56074.9128371 -105098.49581 -78974.970237 -3102.52972945  
-40357.9480482 -85804.7193853 -61819.7070424 -3731.13710268  
-24813.8516547 -66222.8514286 -44607.9845108 -3973.83170186  
-9639.96060151 -46775.6365456 -27643.6426021 -3683.88224563  
3006.35929426 -29969.8142593 -13212.0929329 -2408.71440983  
</DataArray>
<DataArray type="Float64" Name="equivalent_strain" NumberOfComponents="1" format="ascii" >
0.000734167248518  
0.0  
0.000668930263614  
4.74785008706e-06  
0.0  
0.0  
0.0  
0.0  
0.0  
0.0  
0.0  
0.0  
0.0  
0.0  
0.0  
0.0  
0.0  
0.0  
0.0  
0.0  
0.0  
0.000242222606992  
0.0  
0.0  
0.0  
0.0  
0.0  
0.0  
4.20871611288e-06  
7.00709631636e-05  
0.000160596905692  
0.00024791071121  
0.000172982939447  
4.32716979419e-05  
0.0  
0.0  
0.0  
0.0  
0.0  
0.000229030376703  
0.000258851911874  
0.0  
0.0  
0.0  
0.0  
0.0  
2.25494989209e-05  
0.000105563135642  
0.000168046113761  
0.0  
0.0  
0.0  
0.0  
0.0  
0.0  
2.46694517454e-06  
3.36653352628e-05  
7.04345633375e-05  
0.0  
0.0  
0.0  
0.0  
0.0  
0.0  
0.0  
0.0  
3.81628980285e-06  
0.0  
0.0  
0.0  
0.0  
0.0  
0.0  
0.0  
0.0  
0.0  
0.0  
0.0  
0.0  
0.0  
0.0  
0.0  
0.0  
0.0  
0.0  
0.0  
0.0  
0.0  
0.0  
0.0  
0.0  
0.0  
0.0  
0.0  
0.0  
0.0  
0.0  
0.0  
0.0  
0.0  
0.0  
0.0  
0.0  
0.0  
0.0  
0.0  
0.0  
0.0  
0.0  
0.0  
0.0  
0.0  
0.0  
0.0  
0.0  
0.0  
0.0  
0.0  
0.0  
0.0  
0.0  
0.00033981259361  
0.000309470371979  
0.000100766022764  
0.000334813327265  
0.0  
0.0  
0.0  
0.0  
0.0  
2.69321378739e-06  
0.000112646899052  
0.000273483543331  
0.000345675009305  
0.000315151341163  
0.000241472681412  
7.26618787984e-05  
0.0  
0.0  
0.0  
0.0  
0.0  
5.12126037836e-05  
0.0  
0.0  
0.0  
0.0  
0.000326416576336  
3.19283000943e-05  
0.000147625275907  
2.57968407638e-05  
0.000313134134652  
6.43696258315e-05  
0.0  
0.0  
0.0  
0.0  
0.0  
0.0  
0.0  
0.0  
0.0  
0.000334934166259  
0.000109487133517  
2.28132805721e-05  
0.000212240697968  
0.0  
6.75196075715e-05  
0.0  
4.73917295308e-06  
0.0  
0.0  
0.0  
0.0  
0.0  
0.0  
0.0  
0.0  
0.0  
0.0  
0.0  
0.0  
0.0  
9.15847390177e-05  
2.77225188938e-05  
0.0  
0.0  
0.0  
0.0  
0.0  
0.0  
0.0  
0.0  
0.0  
0.0  
0.0  
0.000105244848989  
2.48916637655e-05  
0.0  
0.0  
0.0  
0.0  
0.0  
0.0  
0.0  
0.0  
0.0  
0.000269365433066  
0.000128265100221  
4.09347475275e-05  
6.72479889542e-07  
0.0  
0.0  
0.0  
0.0  
0.0  
0.0  
0.0  
</DataArray>
</PointData>
<CellData>
</CellData>
<Points>
<DataArray type="Float64" Name="Points" NumberOfComponents="3" format="ascii">
45.0 30.0 0.0
35.0 40.0 0.0
44.0 31.0 0.0
43.0 32.0 0.0
42.0 33.0 0.0
41.0 34.0 0.0
40.0 35.0 0.0
39.0 36.0 0.0
38.0 37.0 0.0
37.0 38.0 0.0
36.0 39.0 0.0
25.0 40.0 0.0
34.0 40.0 0.0
33.0 40.0 0.0
32.0 40.0 0.0
31.0 40.0 0.0
30.0 40.0 0.0
29.0 40.0 0.0
28.0 40.0 0.0
27.0 40.0 0.0
26.0 40.0 0.0
25.0 30.0 0.0
25.0 39.0 0.0
25.0 38.0 0.0
25.0 37.0 0.0
25.0 36.0 0.0
25.0 35.0 0.0
25.0 34.0 0.0
25.0 33.0 0.0
25.0 32.0 0.0
25.0 31.0 0.0
27.0 30.0 0.0
29.0 30.0 0.0
31.0 30.0 0.0
33.0 30.0 0.0
35.0 30.0 0.0
37.0 30.0 0.0
39.0 30.0 0.0
41.0 30.0 0.0
43.0 30.0 0.0
42.1 31.0 0.0
40.2 31.0 0.0
38.3 31.0 0.0
36.4 31.0 0.0
34.5 31.0 0.0
32.6 31.0 0.0
30.7 31.0 0.0
28.8 31.0 0.0
26.9 31.0 0.0
41.2 32.0 0.0
39.4 32.0 0.0
37.6 32.0 0.0
35.8 32.0 0.0
34.0 32.0 0.0
32.2 32.0 0.0
30.4 32.0 0.0
28.6 32.0 0.0
26.8 32.0 0.0
40.3 33.0 0.0
38.6 33.0 0.0
36.9 33.0 0.0
35.2 33.0 0.0
33.5 33.0 0.0
31.8 33.0 0.0
30.1 33.0 0.0
28.4 33.0 0.0
26.7 33.0 0.0
39.4 34.0 0.0
37.8 34.0 0.0
36.2 34.0 0.0
34.6 34.0 0.0
33.0 34.0 0.0
31.4 34.0 0.0
29.8 34.0 0.0
28.2 34.0 0.0
26.6 34.0 0.0
38.5 35.0 0.0
37.0 35.0 0.0
35.5 35.0 0.0
34.0 35.0 0.0
32.5 35.0 0.0
31.0 35.0 0.0
29.5 35.0 0.0
28.0 35.0 0.0
26.5 35.0 0.0
37.6 36.0 0.0
36.2 36.0 0.0
34.8 36.0 0.0
33.4 36.0 0.0
32.0 36.0 0.0
30.6 36.0 0.0
29.2 36.0 0.0
27.8 36.0 0.0
26.4 36.0 0.0
36.7 37.0 0.0
35.4 37.0 0.0
34.1 37.0 0.0
32.8 37.0 0.0
31.5 37.0 0.0
30.2 37.0 0.0
28.9 37.0 0.0
27.6 37.0 0.0
26.3 37.0 0.0
35.8 38.0 0.0
34.6 38.0 0.0
33.4 38.0 0.0
32.2 38.0 0.0
31.0 38.0 0.0
29.8 38.0 0.0
28.6 38.0 0.0
27.4 38.0 0.0
26.2 38.0 0.0
34.9 39.0 0.0
33.8 39.0 0.0
32.7 39.0 0.0
31.6 39.0 0.0
30.5 39.0 0.0
29.4 39.0 0.0
28.3 39.0 0.0
27.2 39.0 0.0
26.1 39.0 0.0
25.0 28.0 0.0
25.0 29.0 0.0
45.0 28.0 0.0
45.0 29.0 0.0
43.0 28.0 0.0
41.0 28.0 0.0
39.0 28.0 0.0
37.0 28.0 0.0
35.0 28.0 0.0
33.0 28.0 0.0
31.0 28.0 0.0
29.0 28.0 0.0
27.0 28.0 0.0
27.0 29.0 0.0
29.0 29.0 0.0
31.0 29.0 0.0
33.0 29.0 0.0
35.0 29.0 0.0
37.0 29.0 0.0
39.0 29.0 0.0
41.0 29.0 0.0
43.0 29.0 0.0
75.0 0.0 0.0
75.0 30.0 0.0
75.0 15.0 0.0
57.8571428571 30.0 0.0
49.2857142857 30.0 0.0
57.8571428571 16.0 0.0
49.2857142857 24.0 0.0
57.8571428571 23.0 0.0
49.2857142857 27.0 0.0
0.0 0.0 0.0
7.5 0.0 0.0
15.0 0.0 0.0
22.5 0.0 0.0
30.0 0.0 0.0
37.5 0.0 0.0
45.0 0.0 0.0
52.5 0.0 0.0
60.0 0.0 0.0
67.5 0.0 0.0
21.4285714286 24.0 0.0
14.2857142857 16.0 0.0
18.6428571429 16.0 0.0
24.2142857143 24.0 0.0
23.0 16.0 0.0
27.0 24.0 0.0
27.3571428571 16.0 0.0
29.7857142857 24.0 0.0
31.7142857143 16.0 0.0
32.5714285714 24.0 0.0
36.0714285714 16.0 0.0
35.3571428571 24.0 0.0
40.4285714286 16.0 0.0
38.1428571429 24.0 0.0
44.7857142857 16.0 0.0
40.9285714286 24.0 0.0
49.1428571429 16.0 0.0
43.7142857143 24.0 0.0
53.5 16.0 0.0
46.5 24.0 0.0
0.0 40.0 0.0
0.0 3.33333333333 0.0
0.0 6.66666666667 0.0
0.0 10.0 0.0
0.0 13.3333333333 0.0
0.0 16.6666666667 0.0
0.0 20.0 0.0
0.0 23.3333333333 0.0
0.0 26.6666666667 0.0
0.0 30.0 0.0
0.0 33.3333333333 0.0
0.0 36.6666666667 0.0
14.2857142857 40.0 0.0
21.4285714286 40.0 0.0
14.2857142857 18.0 0.0
14.2857142857 20.0 0.0
14.2857142857 22.0 0.0
14.2857142857 24.0 0.0
14.2857142857 26.0 0.0
14.2857142857 28.0 0.0
14.2857142857 30.0 0.0
14.2857142857 32.0 0.0
14.2857142857 34.0 0.0
14.2857142857 36.0 0.0
14.2857142857 38.0 0.0
21.4285714286 25.3333333333 0.0
21.4285714286 26.6666666667 0.0
21.4285714286 28.0 0.0
21.4285714286 29.3333333333 0.0
21.4285714286 30.6666666667 0.0
21.4285714286 32.0 0.0
21.4285714286 33.3333333333 0.0
21.4285714286 34.6666666667 0.0
21.4285714286 36.0 0.0
21.4285714286 37.3333333333 0.0
21.4285714286 38.6666666667 0.0
</DataArray>
</Points>
<Cells>
<DataArray type="Int64" Name="connectivity" format="ascii">
0 2 40 39 
2 3 49 40 
3 4 58 49 
4 5 67 58 
5 6 76 67 
6 7 85 76 
7 8 94 85 
8 9 103 94 
9 10 112 103 
10 1 12 112 
39 40 41 38 
40 49 50 41 
49 58 59 50 
58 67 68 59 
67 76 77 68 
76 85 86 77 
85 94 95 86 
94 103 104 95 
103 112 113 104 
112 12 13 113 
38 41 42 37 
41 50 51 42 
50 59 60 51 
59 68 69 60 
68 77 78 69 
77 86 87 78 
86 95 96 87 
95 104 105 96 
104 113 114 105 
113 13 14 114 
37 42 43 36 
42 51 52 43 
51 60 61 52 
60 69 70 61 
69 78 79 70 
78 87 88 79 
87 96 97 88 
96 105 106 97 
105 114 115 106 
114 14 15 115 
36 43 44 35 
43 52 53 44 
52 61 62 53 
61 70 71 62 
70 79 80 71 
79 88 89 80 
88 97 98 89 
97 106 107 98 
106 115 116 107 
115 15 16 116 
35 44 45 34 
44 53 54 45 
53 62 63 54 
62 71 72 63 
71 80 81 72 
80 89 90 81 
89 98 99 90 
98 107 108 99 
107 116 117 108 
116 16 17 117 
34 45 46 33 
45 54 55 46 
54 63 64 55 
63 72 73 64 
72 81 82 73 
81 90 91 82 
90 99 100 91 
99 108 109 100 
108 117 118 109 
117 17 18 118 
33 46 47 32 
46 55 56 47 
55 64 65 56 
64 73 74 65 
73 82 83 74 
82 91 92 83 
91 100 101 92 
100 109 110 101 
109 118 119 110 
118 18 19 119 
32 47 48 31 
47 56 57 48 
56 65 66 57 
65 74 75 66 
74 83 84 75 
83 92 93 84 
92 101 102 93 
101 110 111 102 
110 119 120 111 
119 19 20 120 
31 48 30 21 
48 57 29 30 
57 66 28 29 
66 75 27 28 
75 84 26 27 
84 93 25 26 
93 102 24 25 
102 111 23 24 
111 120 22 23 
120 20 11 22 
121 133 134 122 
133 132 135 134 
132 131 136 135 
131 130 137 136 
130 129 138 137 
129 128 139 138 
128 127 140 139 
127 126 141 140 
126 125 142 141 
125 123 124 142 
122 134 31 21 
134 135 32 31 
135 136 33 32 
136 137 34 33 
137 138 35 34 
138 139 36 35 
139 140 37 36 
140 141 38 37 
141 142 39 38 
142 124 0 39 
143 145 150 148 
145 144 146 150 
148 150 151 149 
150 146 147 151 
149 151 124 123 
151 147 0 124 
152 153 164 163 
153 154 166 164 
154 155 168 166 
155 156 170 168 
156 157 172 170 
157 158 174 172 
158 159 176 174 
159 160 178 176 
160 161 180 178 
161 143 148 180 
163 164 165 162 
164 166 167 165 
166 168 169 167 
168 170 171 169 
170 172 173 171 
172 174 175 173 
174 176 177 175 
176 178 179 177 
178 180 181 179 
180 148 149 181 
162 165 133 121 
165 167 132 133 
167 169 131 132 
169 171 130 131 
171 173 129 130 
173 175 128 129 
175 177 127 128 
177 179 126 127 
179 181 125 126 
181 149 123 125 
152 163 196 183 
163 162 207 196 
162 121 122 207 
183 196 197 184 
196 207 208 197 
207 122 21 208 
184 197 198 185 
197 208 209 198 
208 21 30 209 
185 198 199 186 
198 209 210 199 
209 30 29 210 
186 199 200 187 
199 210 211 200 
210 29 28 211 
187 200 201 188 
200 211 212 201 
211 28 27 212 
188 201 202 189 
201 212 213 202 
212 27 26 213 
189 202 203 190 
202 213 214 203 
213 26 25 214 
190 203 204 191 
203 214 215 204 
214 25 24 215 
191 204 205 192 
204 215 216 205 
215 24 23 216 
192 205 206 193 
205 216 217 206 
216 23 22 217 
193 206 194 182 
206 217 195 194 
217 22 11 195 
</DataArray>
<DataArray type="Int64" Name="offsets" format="ascii">
4
8
12
16
20
24
28
32
36
40
44
48
52
56
60
64
68
72
76
80
84
88
92
96
100
104
108
112
116
120
124
128
132
136
140
144
148
152
156
160
164
168
172
176
180
184
188
192
196
200
204
208
212
216
220
224
228
232
236
240
244
248
252
256
260
264
268
272
276
280
284
288
292
296
300
304
308
312
316
320
324
328
332
336
340
344
348
352
356
360
364
368
372
376
380
384
388
392
396
400
404
408
412
416
420
424
428
432
436
440
444
448
452
456
460
464
468
472
476
480
484
488
492
496
500
504
508
512
516
520
524
528
532
536
540
544
548
552
556
560
564
568
572
576
580
584
588
592
596
600
604
608
612
616
620
624
628
632
636
640
644
648
652
656
660
664
668
672
676
680
684
688
692
696
700
704
708
712
716
720
724
728
732
736
740
744
748
752
756
760
764
768
</DataArray>
<DataArray type="UInt8" Name="types" format="ascii" RangeMin="9" RangeMax="9">
9
9
9
9
9
9
9
9
9
9
9
9
9
9
9
9
9
9
9
9
9
9
9
9
9
9
9
9
9
9
9
9
9
9
9
9
9
9
9
9
9
9
9
9
9
9
9
9
9
9
9
9
9
9
9
9
9
9
9
9
9
9
9
9
9
9
9
9
9
9
9
9
9
9
9
9
9
9
9
9
9
9
9
9
9
9
9
9
9
9
9
9
9
9
9
9
9
9
9
9
9
9
9
9
9
9
9
9
9
9
9
9
9
9
9
9
9
9
9
9
9
9
9
9
9
9
9
9
9
9
9
9
9
9
9
9
9
9
9
9
9
9
9
9
9
9
9
9
9
9
9
9
9
9
9
9
9
9
9
9
9
9
9
9
9
9
9
9
9
9
9
9
9
9
9
9
9
9
9
9
9
9
9
9
9
9
9
9
9
9
9
9
</DataArray>
</Cells>
</Piece>
</UnstructuredGrid>
</VTKFile>
