<?xml version="1.0"?>
<VTKFile type="UnstructuredGrid" version="0.1" byte_order="LittleEndian" compressor="vtkZLibDataCompressor">
<UnstructuredGrid>
<Piece NumberOfPoints="218" NumberOfCells="192">
<PointData>
<DataArray type="Float64" Name="displacement" NumberOfComponents="3" format="ascii" >
0.0244030784642 -0.00392442852694  0.
0.0145033890057 -0.0231229906072  0.
0.0261252528282 -0.00517862693881  0.
0.0263904084053 -0.00684689906732  0.
0.0258284311384 -0.00871716250355  0.
0.0247291612548 -0.0107262915444  0.
0.0232679282672 -0.012830034787  0.
0.0215703541962 -0.0149861529318  0.
0.0197390776651 -0.0171470840676  0.
0.0178691760968 -0.0192577034719  0.
0.0160648464876 -0.0212579073371  0.
0.0129794385799 -0.0333076176142  0.
0.014538624911 -0.0249395017691  0.
0.0144707177775 -0.0265082162244  0.
0.014359440983 -0.0278601809265  0.
0.0142222919218 -0.0290172476137  0.
0.0140664115596 -0.0300014544171  0.
0.0138939476469 -0.0308366186591  0.
0.0137048601135 -0.0315493701004  0.
0.0134975485592 -0.0321702983825  0.
0.0132661754545 -0.0327369637274  0.
0.0172647243742 -0.0255370274554  0.
0.0133440894905 -0.0329054300802  0.
0.0137798497505 -0.0323988517928  0.
0.0142661229132 -0.0318014071781  0.
0.0147710924732 -0.031115836275  0.
0.0152714260498 -0.0303473024879  0.
0.0157496722837 -0.029502912939  0.
0.0161938803762 -0.0285908365641  0.
0.0165966590558 -0.02761973616  0.
0.0169541247425 -0.0265985524042  0.
0.0191472287504 -0.0248697268866  0.
0.0209920685706 -0.0238951632533  0.
0.0227246786481 -0.0225715602038  0.
0.0242606286652 -0.0208596301632  0.
0.0255115373196 -0.0187434488815  0.
0.026392410405 -0.0162495282451  0.
0.0268262808154 -0.0134525236912  0.
0.0267329878687 -0.0104534841912  0.
0.0260111015266 -0.00734667770665  0.
0.0265760171637 -0.0085328656696  0.
0.0267054266966 -0.0117363775611  0.
0.0264173643981 -0.0147691150332  0.
0.0257526353199 -0.0175546325141  0.
0.0247595614031 -0.0200090552558  0.
0.023495168709 -0.0220768889551  0.
0.0220220711689 -0.0237423777521  0.
0.0204037942578 -0.025025180775  0.
0.0186980373561 -0.0259640674149  0.
0.0264183165612 -0.0101190668943  0.
0.0261817636896 -0.013277136214  0.
0.0256701923207 -0.0162549971107  0.
0.0248808561967 -0.0189590360658  0.
0.0238488166056 -0.0213213255072  0.
0.0226172551666 -0.0233008113968  0.
0.0212338171427 -0.0248914328026  0.
0.0197444880634 -0.0261162415463  0.
0.0181885300327 -0.0270134319035  0.
0.0256743353994 -0.0119172098877  0.
0.0252732750664 -0.0149804805595  0.
0.0246483053455 -0.0178402576546  0.
0.0238147705461 -0.0204142096513  0.
0.0227998992332 -0.022646177779  0.
0.0216389979203 -0.0245087393911  0.
0.0203686669279 -0.0260041191654  0.
0.0190221365616 -0.0271583834387  0.
0.0176250604707 -0.0280090484146  0.
0.0245057910464 -0.0138342696201  0.
0.0240489040599 -0.0167668950346  0.
0.0234002380773 -0.0194691480603  0.
0.0225857168206 -0.0218779751581  0.
0.0216341407908 -0.0239530223761  0.
0.0205754168926 -0.0256789645295  0.
0.0194382385698 -0.0270654397056  0.
0.018246169388 -0.0281409479946  0.
0.017014631986 -0.0289423170877  0.
0.0230346875014 -0.0158099408785  0.
0.0225887487057 -0.0185771742272  0.
0.0219770297601 -0.0210923914515  0.
0.021230592047 -0.0233126068126  0.
0.0203783184001 -0.0252133069376  0.
0.0194467543505 -0.0267905749374  0.
0.0184584596075 -0.0280603663414  0.
0.0174295227506 -0.0290530982237  0.
0.0163675695234 -0.0298047137952  0.
0.0213626802844 -0.0177938419326  0.
0.0209703135619 -0.0203626448429  0.
0.0204366784996 -0.022667994411  0.
0.0197925689051 -0.0246842613609  0.
0.0190655051954 -0.0264008853522  0.
0.0182788655953 -0.0278237885709  0.
0.0174503057056 -0.0289742342893  0.
0.0165898568919 -0.029883999886  0.
0.015698903099 -0.0305877991741  0.
0.0195816324999 -0.0197383126663  0.
0.0192710290221 -0.0220806474153  0.
0.0188413859301 -0.0241598475882  0.
0.0183206630381 -0.0259635154866  0.
0.017734430414 -0.0274923836104  0.
0.0171029931711 -0.0287603635458  0.
0.0164398918162 -0.0297928991516  0.
0.0157500687618 -0.0306227674176  0.
0.015029200885 -0.0312831710065  0.
0.0177825551833 -0.0215971764527  0.
0.0175704595886 -0.0236942035805  0.
0.017256238806 -0.0255377840955  0.
0.0168675840151 -0.0271254787205  0.
0.0164281260454 -0.0284675513714  0.
0.015954812669 -0.029583879185  0.
0.0154575209122 -0.0305027514816  0.
0.0149375620218 -0.0312579226069  0.
0.0143847241566 -0.0318820607504  0.
0.0160662107457 -0.0233327001781  0.
0.0159486800913 -0.025175867515  0.
0.0157452155245 -0.0267777752138  0.
0.0154863214266 -0.0281495944858  0.
0.0151915243768 -0.0293090703004  0.
0.0148727917677 -0.0302798984526  0.
0.0145359690173 -0.0310912616263  0.
0.0141804193136 -0.0317767620105  0.
0.0137947337064 -0.0323724167698  0.
0.0177478564978 -0.0233461322074  0.
0.0175299949984 -0.0244450426752  0.
0.0247651955163 -0.00573813884147  0.
0.0245669959118 -0.00493225113544  0.
0.026184881141 -0.00824747229949  0.
0.0271153907387 -0.0107270201242  0.
0.0274993833602 -0.0131337892677  0.
0.0272684112186 -0.0153831038202  0.
0.0264606261543 -0.0174009737879  0.
0.0251712163413 -0.0191347275778  0.
0.023521835572 -0.0205680142036  0.
0.0216382393663 -0.0217223164911  0.
0.0196636083616 -0.0226376558046  0.
0.0194453269399 -0.0237733203918  0.
0.0213506666742 -0.022835420066  0.
0.0231468502726 -0.0215948439792  0.
0.0247269063078 -0.0200151112664  0.
0.025984728997 -0.0180786459011  0.
0.0268242081245 -0.0158076156048  0.
0.0271659884171 -0.0132687099643  0.
0.0269566181829 -0.0105653637853  0.
0.0261516270516 -0.00778892957287  0.
0.0 0.0  0.
0.0 0.0145791290745  0.
0.0 0.0061661990297  0.
0.0115480282057 0.0083558016831  0.
0.019208446153 0.00201208255844  0.
0.0152358108527 -0.00272065134957  0.
0.0220288494895 -0.00385155457767  0.
0.0136838002388 0.00292344501001  0.
0.0209150210453 -0.00112649691407  0.
0.0 0.0  0.
0.0 0.0  0.
0.0 0.0  0.
0.0 0.0  0.
0.0 0.0  0.
0.0 0.0  0.
0.0 0.0  0.
0.0 0.0  0.
0.0 0.0  0.
0.0 0.0  0.
0.0151226473277 -0.0200610323806  0.
0.00953218622578 -0.0130871991873  0.
0.0127040441257 -0.011914456198  0.
0.0177102026761 -0.0190679232702  0.
0.0150454483725 -0.0113639365823  0.
0.0201554498154 -0.0181449763783  0.
0.0170557361474 -0.0108552909916  0.
0.022345094153 -0.0171687934313  0.
0.0187441678753 -0.0102916794654  0.
0.0242142013003 -0.0159980880563  0.
0.0200357695181 -0.00962779539139  0.
0.0256285984282 -0.0145862243551  0.
0.0208284375933 -0.00884720602543  0.
0.026446364751 -0.0129317858901  0.
0.0210151624858 -0.00793585581034  0.
0.0265519598125 -0.0110562997049  0.
0.0204611277285 -0.00683965834829  0.
0.0258680919149 -0.00896651794321  0.
0.0189134650302 -0.00541571843131  0.
0.0242904511974 -0.00654958062972  0.
0.0 -0.0362429072672  0.
0.0 -0.00408005546316  0.
0.0 -0.00799913618494  0.
0.0 -0.0117436035207  0.
0.0 -0.0153049755751  0.
0.0 -0.0186745477747  0.
0.0 -0.0218427213438  0.
0.0 -0.0247997208147  0.
0.0 -0.0275368947561  0.
0.0 -0.0300484189583  0.
0.0 -0.0323332164511  0.
0.0 -0.0343967191099  0.
0.00774319356005 -0.0337135505173  0.
0.0114929548554 -0.0337829769096  0.
0.00952662015239 -0.0153047630169  0.
0.00947465827193 -0.0174694029568  0.
0.00939657968629 -0.0195577474359  0.
0.00929095060073 -0.0215639856426  0.
0.00915323426213 -0.0234827697184  0.
0.00898106348494 -0.0253059460961  0.
0.00877633885996 -0.0270227682676  0.
0.0085467694905 -0.0286213173418  0.
0.00830716218333 -0.0300908371722  0.
0.0080799210374 -0.0314249887299  0.
0.0078937916521 -0.032625642198  0.
0.0149216197398 -0.021601079532  0.
0.0147334552706 -0.0230533972344  0.
0.0145186621208 -0.024453839365  0.
0.0142646576502 -0.025804560418  0.
0.0139670218114 -0.0270991326148  0.
0.0136258247695 -0.0283281469536  0.
0.0132459914696 -0.0294806400179  0.
0.0128386574173 -0.0305451148146  0.
0.0124225441807 -0.0315110946423  0.
0.0120250461463 -0.0323713410884  0.
0.0116825015669 -0.0331250845538  0.
</DataArray>
<DataArray type="Float64" Name="stresses" NumberOfComponents="4" format="ascii" >
-50155.3710913 -26408.5746235 -37516.3334003 11816.8940295  
-27459.0976401 -27630.1396216 -26993.7262582 1486.86459521  
17482.095036 24789.2997806 20712.9834602 16898.55449  
9979.34328676 10852.9493499 10207.823392 11086.557406  
11716.4145199 9732.38007734 10509.9093527 7657.92863927  
10017.3616268 6611.17156293 8147.98126298 5375.57866166  
5956.84072354 1941.78335865 3870.32580027 3773.79942485  
504.440555771 -3544.08336609 -1489.42497706 2614.56558022  
-5130.77996004 -8671.23202458 -6762.98587246 1775.98135897  
-9567.96331813 -11959.1157724 -10548.2687543 1249.8033431  
-15096.8335933 -15701.3191208 -15091.0948299 1368.19311759  
-12430.9411563 -22594.5135023 -17162.4727828 -49.6269082306  
-21209.3971294 -22539.2008419 -21436.813006 1219.76030587  
-22509.3948492 -25908.0559896 -23724.550911 379.583649977  
-23790.0377126 -28202.8693405 -25476.524456 -279.807877305  
-23071.5576581 -28074.746236 -25061.6889081 -691.968968699  
-21110.6677371 -26521.8686636 -23339.9428363 -881.953250742  
-18650.3191068 -24417.0673087 -21103.0193436 -880.500476062  
-16338.1815463 -22487.5423642 -19024.6047161 -697.999652579  
-14628.7810819 -21288.0322001 -17599.2385082 -302.045162434  
-11854.5335618 -19490.0202116 -15358.831349 438.138527045  
-26842.5089319 -54124.2188749 -39673.6966253 249.914202387  
6129.61432096 -6123.84789633 2.82554806907 -676.581218295  
2958.33371987 -11724.594428 -4295.46774701 -1295.40826277  
867.675709088 -16081.5975992 -7454.82172616 -1622.49446439  
-1803.93449929 -20893.448266 -11121.717555 -1695.96312404  
-4965.91773133 -26014.5998586 -15180.4536191 -1584.05036776  
-8570.57785423 -31359.6070868 -19565.7906211 -1336.89684902  
-12600.918134 -36892.0969275 -24251.5773802 -996.919786676  
-17031.2161793 -42578.0427192 -29208.5368602 -599.28418387  
-21767.9087159 -48314.9619401 -34340.6066214 -173.478115621  
-34489.8725535 -61426.6218517 -46999.0822586 559.786322102  
-35017.7385734 -60948.9974546 -47023.7006537 1278.63039564  
-35992.7176161 -59846.552746 -46961.2424774 2140.92963967  
-37646.5592986 -58265.9108463 -46997.110371 3223.86997699  
-40356.972653 -56596.4672295 -47507.1855425 4516.06978191  
-44459.8421027 -55266.1150306 -48865.7189953 5939.91788447  
-51100.1657433 -55499.3975245 -52233.7860012 7407.21344109  
-61983.9109354 -58903.1972566 -59234.6830141 8845.98772309  
-80871.2625893 -68166.9969221 -73028.7471606 10606.3347312  
1485.88083117 5805.80801392 3572.9275341 12004.8331233  
-19066.866044 -20939.3736662 -19603.057458 9373.71131572  
-23066.6343747 -30843.457459 -26415.9449985 7564.93425266  
-24452.4979418 -37380.07234 -30297.9594381 5933.3950109  
-25039.7384234 -42323.9253611 -33008.1952544 4397.96979697  
-25654.1533163 -46431.7663621 -35322.1006425 3011.53948155  
-26438.6433769 -49805.2265428 -37359.4962607 1841.7111008  
-27279.0112419 -52360.6128026 -39023.4157818 911.350444443  
-28060.85437 -54081.1323733 -40249.5735043 170.941782463  
-8647.98862859 -10548.5594537 -9406.30856034 9299.61550974  
-14418.184851 -20666.4299241 -17191.4612398 7739.39176435  
-18324.1231865 -28948.4591127 -23163.5653266 6347.93758901  
-19542.6007253 -34186.0543211 -26327.0409728 4976.41308124  
-20174.9074936 -38216.996356 -28612.0328863 3627.07920932  
-20781.6938883 -41528.9366218 -30532.2089499 2376.86221909  
-21534.7372086 -44279.033718 -32248.747754 1307.40955016  
-22346.1222717 -46439.3299498 -33704.8715885 455.284807108  
-23111.4375573 -48017.1904214 -34853.0277096 -210.804149697  
-10179.677945 -15047.2683702 -12361.2036944 6923.916736  
-12514.2836533 -21273.2301582 -16555.8817676 6149.29950876  
-13956.5589938 -26264.3919505 -19708.2659627 5121.05624592  
-15043.2797286 -30543.5711097 -22337.5569108 3973.29071044  
-15657.4197533 -33826.5860895 -24247.1628629 2798.60960811  
-16287.6214827 -36546.0428665 -25888.4955311 1697.38345194  
-17020.1717616 -38808.1074657 -27355.8568214 755.587491345  
-17785.4772117 -40628.2983061 -28622.7500037 13.5262089477  
-18430.0085906 -41981.9183908 -29601.8442209 -553.343514559  
-8838.13461733 -15013.1981119 -11687.1530373 5090.66069938  
-9995.22043121 -19860.0025735 -14629.0592723 4662.52055011  
-10578.0695702 -23532.0136221 -16713.9407642 3903.7775032  
-11134.2755353 -26708.8925502 -18543.1523619 2956.41457873  
-11653.8398767 -29345.0831223 -20089.4722695 1956.24182304  
-12217.0802602 -31524.4042007 -21433.3273859 1015.79701724  
-12873.8120509 -33352.5964806 -22650.9401805 220.91140226  
-13535.1078077 -34850.4564623 -23708.9264923 -390.268175718  
-14032.0225592 -35991.9863659 -24511.7643733 -839.663611844  
-6637.31770716 -13109.6704204 -9676.02418249 3675.99113261  
-7269.16710266 -17225.765599 -12002.5170238 3380.81216724  
-7521.37476509 -20235.4971165 -13600.867222 2778.80410527  
-7800.22100125 -22726.1602303 -14957.9268035 1995.91729401  
-8121.74627009 -24755.0930558 -16109.6512697 1160.56250695  
-8543.68510733 -26439.5934667 -17141.8065013 384.332874839  
-9047.84075371 -27855.7827342 -18082.7755091 -252.850974017  
-9553.9836543 -29056.2681195 -18919.0233692 -718.866425056  
-9907.48478286 -30037.6782949 -19573.1299081 -1037.13760625  
-4142.376305 -10189.4427897 -7022.5913564 2596.47493465  
-4670.33423027 -13931.454381 -9114.87641952 2329.94491703  
-4814.06797032 -16547.1075648 -10466.9760122 1818.23907273  
-4888.57521016 -18520.296451 -11470.3471139 1160.82249679  
-5000.04416412 -20033.8586272 -12266.6123677 473.105051501  
-5208.74368611 -21246.6239023 -12963.1301183 -143.388125836  
-5486.08788698 -22259.0224545 -13595.1040673 -617.667336661  
-5782.28634124 -23178.1153042 -14190.5968062 -926.985397789  
-6003.72361738 -24066.6776358 -14734.4966141 -1102.87828987  
-1814.41528263 -6835.5760002 -4238.49572859 1815.13511413  
-2541.10061896 -10463.5756133 -6372.29135382 1541.176815  
-2532.58331726 -12671.3881562 -7449.946022 1076.24003835  
-2313.83361736 -14096.4962621 -8041.06164093 509.928290008  
-2186.46908743 -15133.1574174 -8486.61698738 -51.5273197838  
-2159.48673556 -15917.0916156 -8857.52339207 -517.827415457  
-2138.33130883 -16511.4383375 -9138.38712671 -828.099861303  
-2109.30599127 -17089.7033664 -9407.51458526 -967.870105642  
-2191.07057192 -17944.6300693 -9866.4933142 -985.312569577  
-761.06922725 -4225.8441539 -2443.58755676 1372.16568678  
-1340.2579747 -7428.69131898 -4296.7851539 1059.65339038  
-508.752172164 -8581.63274901 -4454.28861138 592.989839582  
110.303689723 -9370.31717862 -4537.40660956 82.0667671292  
463.151369967 -9972.28034438 -4659.47319746 -372.864620481  
660.644860784 -10428.8264806 -4786.40899372 -699.732351546  
916.910846038 -10695.5978306 -4791.55662246 -849.731054198  
1532.67642467 -10688.7015014 -4486.45228759 -808.664806425  
2078.23430309 -11087.2387644 -4414.41218604 -630.136628228  
-3778.43551907 -5401.52379103 -4498.18006195 1398.41843596  
-88.5262144375 -4115.92250098 -2060.17987056 905.748472567  
1967.9632109 -3743.76545504 -870.143099631 353.205971783  
2849.12768899 -3970.0622649 -549.257942195 -127.610747422  
3158.34591309 -4396.95864454 -606.920238407 -479.286949445  
3220.25969957 -4857.35782007 -802.178079044 -670.582210475  
3359.33984208 -5171.44948063 -887.933722891 -676.370583564  
4183.62687105 -4922.35332823 -361.97596402 -470.324686615  
6973.69925047 -3201.58085377 1848.33801438 -58.8260498795  
-36376.2755038 -64239.4439521 -49301.7025334 880.743476228  
-30076.8408686 -57747.9644896 -43034.1546255 630.267509445  
11538.5828444 32954.3191235 21801.5219643 7119.23096385  
-801.594436907 23350.3188791 11048.8749767 7743.53106457  
-20222.1262104 -4863.0800854 -12291.7510849 8032.93922047  
-25781.3377034 -17763.376149 -21336.9097877 7863.46417326  
-31423.6355724 -31600.5820513 -30881.8666356 7321.97534877  
-33906.8710175 -42321.89135 -37352.0935601 6508.45853155  
-35635.0240154 -51343.0123398 -42619.237814 5466.81029016  
-37402.6900401 -58927.2875687 -47201.6890283 4294.11569159  
-39409.5798617 -65077.026778 -51198.4372535 3124.40149421  
-42997.0515079 -71057.8197136 -55886.8868986 2109.33400441  
-47369.8221524 -75885.0949831 -60394.9093964 1354.85574561  
-40081.7291572 -67883.1178817 -52902.775049 967.891588349  
-40539.0817536 -67543.1651666 -52960.3009909 1486.80339113  
-40535.715935 -65311.9965858 -51865.3791352 2057.03850971  
-40786.3060752 -61885.9164614 -50309.3890429 2843.99786211  
-41275.4471845 -57323.2727004 -48313.3727436 3874.69461801  
-41384.8376179 -51163.7244298 -45348.7954034 5130.76226464  
-41078.9606223 -43662.4468827 -41523.2896775 6536.99115757  
-41821.9936412 -36582.2848111 -38418.0964416 7911.03129465  
-56363.8686715 -42299.4006957 -48345.0019899 8868.37822335  
-112495.442232 -105911.426951 -107019.3659 5039.41807228  
-51838.7873139 -35501.4311827 -42796.7070633 2601.65960866  
-118104.683801 -101330.910516 -107523.441215 2857.11096094  
-22898.3524401 -2365.36633437 -12379.2221995 1905.88188375  
-24523.0364668 3318.5968866 -10390.1753943 3364.97897418  
-109964.256758 -89518.0641715 -97746.3372556 4314.71916903  
-55517.6250721 -32153.1787021 -42958.6938494 5379.53473563  
-69111.3674122 -46479.4069132 -56639.4794194 3034.57097017  
-47740.2897313 -20545.6841879 -33460.1272204 4472.57571298  
-228465.228236 -246263.841314 -232617.244079 3638.56760072  
-256273.465332 -265581.238506 -255708.804881 5437.25335523  
-243607.185757 -252640.756411 -243161.491662 6368.19465157  
-231959.368877 -240654.001117 -231580.551297 7156.84131377  
-218984.866414 -227300.145103 -218679.655643 7815.97792694  
-203653.787192 -211530.537824 -203440.319258 8320.76546348  
-185613.59839 -192984.953361 -185513.290358 8635.78799638  
-164580.606987 -171374.956972 -164618.22634 8721.34880055  
-139382.338346 -145510.704927 -139597.591204 8526.66558596  
-106709.866578 -112157.554004 -107245.036085 7956.70567835  
-66109.733539 -93989.895051 -78448.8180091 1378.8635985  
-118651.807595 -142723.596251 -128073.947885 1991.21088105  
-109732.836244 -130335.44778 -117633.459172 3235.95418147  
-66254.6454362 -93323.2246116 -78193.1563235 1835.39659091  
-116117.423142 -133488.900451 -122307.09856 4477.80143127  
-61647.1746247 -86454.1175607 -72569.6331708 2850.23741325  
-118203.547784 -133747.684687 -123456.103911 5725.93477945  
-62778.853216 -84820.731783 -72323.7966495 4222.72117881  
-119511.650358 -133024.393074 -123742.661282 6827.37663837  
-65050.8527923 -83450.2739958 -72765.5521262 5645.74691617  
-121022.103019 -132010.199122 -123985.828049 7654.20876826  
-68593.2616231 -82088.7724321 -73834.196687 6794.28408381  
-123139.128774 -131025.292871 -124540.566606 8067.86817598  
-72851.8560198 -80239.5325021 -75014.7803758 7406.14072825  
-126461.949831 -130584.179111 -125952.603182 7970.98571082  
-76899.2103128 -77230.0544385 -75523.3397281 7345.29100188  
-132721.763146 -132041.511914 -129734.004779 7274.11330239  
-79956.6240487 -72257.1270165 -74584.738022 6698.15284506  
-147064.105567 -137652.085199 -139510.933476 5821.55260129  
-72212.111492 -56330.0571836 -62985.662651 5782.81624128  
3176.26921901 -11542.013429 -4099.21466292 1220.54560119  
-168845.364389 -193978.922103 -177783.900381 3046.25301088  
-153497.967578 -177878.22447 -162374.334104 2799.95715834  
-137608.237056 -161175.813736 -146404.184888 2552.6843265  
-121504.896255 -144200.674987 -130195.729908 2314.0998558  
-105244.527419 -127003.46472 -113801.516148 2086.92828595  
-88825.7322398 -109580.609202 -97219.1073067 1874.56654203  
-72246.0497215 -91935.3040721 -80448.8633589 1682.29635619  
-55516.5537162 -74094.7877739 -63509.5573302 1516.69680268  
-38662.645099 -56112.9334269 -46440.0334777 1384.27602232  
-21714.6559693 -38060.8549431 -29290.0003471 1289.56798659  
-4199.56375674 -19493.9414211 -11609.8175371 1236.03782583  
3099.06553924 -11388.7431889 -4061.94204832 95.1739253708  
-2480.84528869 -15473.242812 -8797.50316936 -491.189723747  
-114944.400239 -139397.990385 -124627.771406 1919.84374372  
-102795.511613 -126864.303655 -112533.309482 1654.81464123  
-91040.5153703 -114507.287999 -100718.423651 1387.32698906  
-79435.4227171 -102220.327282 -89011.3174994 1108.81839665  
-67923.1289283 -89936.3946223 -77351.1665398 819.877294169  
-56492.778115 -77611.4521607 -65711.0728351 531.987281263  
-45146.7907863 -65224.4544909 -54081.9101858 266.958096582  
-33893.719551 -52784.2569746 -42472.2084975 55.7875658239  
-22745.5332228 -40338.5675165 -30911.2093623 -64.834313429  
-11704.3298747 -27970.0814371 -19440.4615428 -60.2443669528  
-994.456504146 -16064.2336144 -8358.75815809 26.9730704737  
-65873.683517 -92810.2708045 -77755.1376175 1167.59348009  
-58538.1602086 -84387.7397109 -70033.6909606 778.573689285  
-51580.4753719 -76697.1132886 -62856.0184436 375.213492347  
-44689.4013963 -69031.4823252 -55723.2330235 -54.0687569498  
-37797.339914 -61213.173338 -48515.1514935 -490.876457627  
-30917.9099362 -53209.6688145 -41222.5135878 -907.65402704  
-24081.2093787 -45028.4773971 -33863.7465201 -1267.4980225  
-17315.069877 -36700.6237556 -26467.68988 -1523.49465764  
-10640.8874723 -28288.5312775 -19075.4151874 -1620.3231488  
-4127.25044002 -19954.1766514 -11799.8992748 -1499.20591878  
1329.19238436 -12741.5755731 -5592.0677625 -974.703560756  
</DataArray>
<DataArray type="Float64" Name="equivalent_strain" NumberOfComponents="1" format="ascii" >
0.0  
0.0  
0.0  
0.0  
0.0  
0.0  
0.0  
0.0  
0.0  
0.0  
0.0  
0.0  
0.0  
0.0  
0.0  
0.0  
0.0  
0.0  
0.0  
0.0  
0.0  
0.0  
0.0  
0.0  
0.0  
0.0  
0.0  
0.0  
0.0  
0.0  
0.0  
0.0  
0.0  
0.0  
0.0  
0.0  
0.0  
0.0  
0.0  
0.0  
0.0  
0.0  
0.0  
0.0  
0.0  
0.0  
0.0  
0.0  
0.0  
0.0  
0.0  
0.0  
0.0  
0.0  
0.0  
0.0  
0.0  
0.0  
0.0  
0.0  
0.0  
0.0  
0.0  
0.0  
0.0  
0.0  
0.0  
0.0  
0.0  
0.0  
0.0  
0.0  
0.0  
0.0  
0.0  
0.0  
0.0  
0.0  
0.0  
0.0  
0.0  
0.0  
0.0  
0.0  
0.0  
0.0  
0.0  
0.0  
0.0  
0.0  
0.0  
0.0  
0.0  
0.0  
0.0  
0.0  
0.0  
0.0  
0.0  
0.0  
0.0  
0.0  
0.0  
0.0  
0.0  
0.0  
0.0  
0.0  
0.0  
0.0  
0.0  
0.0  
0.0  
0.0  
0.0  
0.0  
0.0  
0.0  
0.0  
0.0  
0.0  
0.0  
0.0  
0.0  
0.0  
0.0  
0.0  
0.0  
0.0  
0.0  
0.0  
0.0  
0.0  
0.0  
0.0  
0.0  
0.0  
0.0  
0.0  
0.0  
0.0  
0.0  
0.0  
0.0  
0.0  
0.0  
0.0  
0.0  
0.0  
0.0  
0.0  
0.0  
0.0  
0.0  
0.0  
0.0  
0.0  
0.0  
0.0  
0.0  
0.0  
0.0  
0.0  
0.0  
0.0  
0.0  
0.0  
0.0  
0.0  
0.0  
0.0  
0.0  
0.0  
0.0  
0.0  
0.0  
0.0  
0.0  
0.0  
0.0  
0.0  
0.0  
0.0  
0.0  
0.0  
0.0  
0.0  
0.0  
0.0  
0.0  
0.0  
0.0  
0.0  
0.0  
0.0  
0.0  
0.0  
0.0  
0.0  
0.0  
0.0  
0.0  
0.0  
0.0  
0.0  
0.0  
0.0  
0.0  
0.0  
0.0  
0.0  
0.0  
0.0  
0.0  
0.0  
0.0  
0.0  
0.0  
</DataArray>
</PointData>
<CellData>
</CellData>
<Points>
<DataArray type="Float64" Name="Points" NumberOfComponents="3" format="ascii">
45.0 30.0 0.0
35.0 40.0 0.0
44.0 31.0 0.0
43.0 32.0 0.0
42.0 33.0 0.0
41.0 34.0 0.0
40.0 35.0 0.0
39.0 36.0 0.0
38.0 37.0 0.0
37.0 38.0 0.0
36.0 39.0 0.0
25.0 40.0 0.0
34.0 40.0 0.0
33.0 40.0 0.0
32.0 40.0 0.0
31.0 40.0 0.0
30.0 40.0 0.0
29.0 40.0 0.0
28.0 40.0 0.0
27.0 40.0 0.0
26.0 40.0 0.0
25.0 30.0 0.0
25.0 39.0 0.0
25.0 38.0 0.0
25.0 37.0 0.0
25.0 36.0 0.0
25.0 35.0 0.0
25.0 34.0 0.0
25.0 33.0 0.0
25.0 32.0 0.0
25.0 31.0 0.0
27.0 30.0 0.0
29.0 30.0 0.0
31.0 30.0 0.0
33.0 30.0 0.0
35.0 30.0 0.0
37.0 30.0 0.0
39.0 30.0 0.0
41.0 30.0 0.0
43.0 30.0 0.0
42.1 31.0 0.0
40.2 31.0 0.0
38.3 31.0 0.0
36.4 31.0 0.0
34.5 31.0 0.0
32.6 31.0 0.0
30.7 31.0 0.0
28.8 31.0 0.0
26.9 31.0 0.0
41.2 32.0 0.0
39.4 32.0 0.0
37.6 32.0 0.0
35.8 32.0 0.0
34.0 32.0 0.0
32.2 32.0 0.0
30.4 32.0 0.0
28.6 32.0 0.0
26.8 32.0 0.0
40.3 33.0 0.0
38.6 33.0 0.0
36.9 33.0 0.0
35.2 33.0 0.0
33.5 33.0 0.0
31.8 33.0 0.0
30.1 33.0 0.0
28.4 33.0 0.0
26.7 33.0 0.0
39.4 34.0 0.0
37.8 34.0 0.0
36.2 34.0 0.0
34.6 34.0 0.0
33.0 34.0 0.0
31.4 34.0 0.0
29.8 34.0 0.0
28.2 34.0 0.0
26.6 34.0 0.0
38.5 35.0 0.0
37.0 35.0 0.0
35.5 35.0 0.0
34.0 35.0 0.0
32.5 35.0 0.0
31.0 35.0 0.0
29.5 35.0 0.0
28.0 35.0 0.0
26.5 35.0 0.0
37.6 36.0 0.0
36.2 36.0 0.0
34.8 36.0 0.0
33.4 36.0 0.0
32.0 36.0 0.0
30.6 36.0 0.0
29.2 36.0 0.0
27.8 36.0 0.0
26.4 36.0 0.0
36.7 37.0 0.0
35.4 37.0 0.0
34.1 37.0 0.0
32.8 37.0 0.0
31.5 37.0 0.0
30.2 37.0 0.0
28.9 37.0 0.0
27.6 37.0 0.0
26.3 37.0 0.0
35.8 38.0 0.0
34.6 38.0 0.0
33.4 38.0 0.0
32.2 38.0 0.0
31.0 38.0 0.0
29.8 38.0 0.0
28.6 38.0 0.0
27.4 38.0 0.0
26.2 38.0 0.0
34.9 39.0 0.0
33.8 39.0 0.0
32.7 39.0 0.0
31.6 39.0 0.0
30.5 39.0 0.0
29.4 39.0 0.0
28.3 39.0 0.0
27.2 39.0 0.0
26.1 39.0 0.0
25.0 28.0 0.0
25.0 29.0 0.0
45.0 28.0 0.0
45.0 29.0 0.0
43.0 28.0 0.0
41.0 28.0 0.0
39.0 28.0 0.0
37.0 28.0 0.0
35.0 28.0 0.0
33.0 28.0 0.0
31.0 28.0 0.0
29.0 28.0 0.0
27.0 28.0 0.0
27.0 29.0 0.0
29.0 29.0 0.0
31.0 29.0 0.0
33.0 29.0 0.0
35.0 29.0 0.0
37.0 29.0 0.0
39.0 29.0 0.0
41.0 29.0 0.0
43.0 29.0 0.0
75.0 0.0 0.0
75.0 30.0 0.0
75.0 15.0 0.0
57.8571428571 30.0 0.0
49.2857142857 30.0 0.0
57.8571428571 16.0 0.0
49.2857142857 24.0 0.0
57.8571428571 23.0 0.0
49.2857142857 27.0 0.0
0.0 0.0 0.0
7.5 0.0 0.0
15.0 0.0 0.0
22.5 0.0 0.0
30.0 0.0 0.0
37.5 0.0 0.0
45.0 0.0 0.0
52.5 0.0 0.0
60.0 0.0 0.0
67.5 0.0 0.0
21.4285714286 24.0 0.0
14.2857142857 16.0 0.0
18.6428571429 16.0 0.0
24.2142857143 24.0 0.0
23.0 16.0 0.0
27.0 24.0 0.0
27.3571428571 16.0 0.0
29.7857142857 24.0 0.0
31.7142857143 16.0 0.0
32.5714285714 24.0 0.0
36.0714285714 16.0 0.0
35.3571428571 24.0 0.0
40.4285714286 16.0 0.0
38.1428571429 24.0 0.0
44.7857142857 16.0 0.0
40.9285714286 24.0 0.0
49.1428571429 16.0 0.0
43.7142857143 24.0 0.0
53.5 16.0 0.0
46.5 24.0 0.0
0.0 40.0 0.0
0.0 3.33333333333 0.0
0.0 6.66666666667 0.0
0.0 10.0 0.0
0.0 13.3333333333 0.0
0.0 16.6666666667 0.0
0.0 20.0 0.0
0.0 23.3333333333 0.0
0.0 26.6666666667 0.0
0.0 30.0 0.0
0.0 33.3333333333 0.0
0.0 36.6666666667 0.0
14.2857142857 40.0 0.0
21.4285714286 40.0 0.0
14.2857142857 18.0 0.0
14.2857142857 20.0 0.0
14.2857142857 22.0 0.0
14.2857142857 24.0 0.0
14.2857142857 26.0 0.0
14.2857142857 28.0 0.0
14.2857142857 30.0 0.0
14.2857142857 32.0 0.0
14.2857142857 34.0 0.0
14.2857142857 36.0 0.0
14.2857142857 38.0 0.0
21.4285714286 25.3333333333 0.0
21.4285714286 26.6666666667 0.0
21.4285714286 28.0 0.0
21.4285714286 29.3333333333 0.0
21.4285714286 30.6666666667 0.0
21.4285714286 32.0 0.0
21.4285714286 33.3333333333 0.0
21.4285714286 34.6666666667 0.0
21.4285714286 36.0 0.0
21.4285714286 37.3333333333 0.0
21.4285714286 38.6666666667 0.0
</DataArray>
</Points>
<Cells>
<DataArray type="Int64" Name="connectivity" format="ascii">
0 2 40 39 
2 3 49 40 
3 4 58 49 
4 5 67 58 
5 6 76 67 
6 7 85 76 
7 8 94 85 
8 9 103 94 
9 10 112 103 
10 1 12 112 
39 40 41 38 
40 49 50 41 
49 58 59 50 
58 67 68 59 
67 76 77 68 
76 85 86 77 
85 94 95 86 
94 103 104 95 
103 112 113 104 
112 12 13 113 
38 41 42 37 
41 50 51 42 
50 59 60 51 
59 68 69 60 
68 77 78 69 
77 86 87 78 
86 95 96 87 
95 104 105 96 
104 113 114 105 
113 13 14 114 
37 42 43 36 
42 51 52 43 
51 60 61 52 
60 69 70 61 
69 78 79 70 
78 87 88 79 
87 96 97 88 
96 105 106 97 
105 114 115 106 
114 14 15 115 
36 43 44 35 
43 52 53 44 
52 61 62 53 
61 70 71 62 
70 79 80 71 
79 88 89 80 
88 97 98 89 
97 106 107 98 
106 115 116 107 
115 15 16 116 
35 44 45 34 
44 53 54 45 
53 62 63 54 
62 71 72 63 
71 80 81 72 
80 89 90 81 
89 98 99 90 
98 107 108 99 
107 116 117 108 
116 16 17 117 
34 45 46 33 
45 54 55 46 
54 63 64 55 
63 72 73 64 
72 81 82 73 
81 90 91 82 
90 99 100 91 
99 108 109 100 
108 117 118 109 
117 17 18 118 
33 46 47 32 
46 55 56 47 
55 64 65 56 
64 73 74 65 
73 82 83 74 
82 91 92 83 
91 100 101 92 
100 109 110 101 
109 118 119 110 
118 18 19 119 
32 47 48 31 
47 56 57 48 
56 65 66 57 
65 74 75 66 
74 83 84 75 
83 92 93 84 
92 101 102 93 
101 110 111 102 
110 119 120 111 
119 19 20 120 
31 48 30 21 
48 57 29 30 
57 66 28 29 
66 75 27 28 
75 84 26 27 
84 93 25 26 
93 102 24 25 
102 111 23 24 
111 120 22 23 
120 20 11 22 
121 133 134 122 
133 132 135 134 
132 131 136 135 
131 130 137 136 
130 129 138 137 
129 128 139 138 
128 127 140 139 
127 126 141 140 
126 125 142 141 
125 123 124 142 
122 134 31 21 
134 135 32 31 
135 136 33 32 
136 137 34 33 
137 138 35 34 
138 139 36 35 
139 140 37 36 
140 141 38 37 
141 142 39 38 
142 124 0 39 
143 145 150 148 
145 144 146 150 
148 150 151 149 
150 146 147 151 
149 151 124 123 
151 147 0 124 
152 153 164 163 
153 154 166 164 
154 155 168 166 
155 156 170 168 
156 157 172 170 
157 158 174 172 
158 159 176 174 
159 160 178 176 
160 161 180 178 
161 143 148 180 
163 164 165 162 
164 166 167 165 
166 168 169 167 
168 170 171 169 
170 172 173 171 
172 174 175 173 
174 176 177 175 
176 178 179 177 
178 180 181 179 
180 148 149 181 
162 165 133 121 
165 167 132 133 
167 169 131 132 
169 171 130 131 
171 173 129 130 
173 175 128 129 
175 177 127 128 
177 179 126 127 
179 181 125 126 
181 149 123 125 
152 163 196 183 
163 162 207 196 
162 121 122 207 
183 196 197 184 
196 207 208 197 
207 122 21 208 
184 197 198 185 
197 208 209 198 
208 21 30 209 
185 198 199 186 
198 209 210 199 
209 30 29 210 
186 199 200 187 
199 210 211 200 
210 29 28 211 
187 200 201 188 
200 211 212 201 
211 28 27 212 
188 201 202 189 
201 212 213 202 
212 27 26 213 
189 202 203 190 
202 213 214 203 
213 26 25 214 
190 203 204 191 
203 214 215 204 
214 25 24 215 
191 204 205 192 
204 215 216 205 
215 24 23 216 
192 205 206 193 
205 216 217 206 
216 23 22 217 
193 206 194 182 
206 217 195 194 
217 22 11 195 
</DataArray>
<DataArray type="Int64" Name="offsets" format="ascii">
4
8
12
16
20
24
28
32
36
40
44
48
52
56
60
64
68
72
76
80
84
88
92
96
100
104
108
112
116
120
124
128
132
136
140
144
148
152
156
160
164
168
172
176
180
184
188
192
196
200
204
208
212
216
220
224
228
232
236
240
244
248
252
256
260
264
268
272
276
280
284
288
292
296
300
304
308
312
316
320
324
328
332
336
340
344
348
352
356
360
364
368
372
376
380
384
388
392
396
400
404
408
412
416
420
424
428
432
436
440
444
448
452
456
460
464
468
472
476
480
484
488
492
496
500
504
508
512
516
520
524
528
532
536
540
544
548
552
556
560
564
568
572
576
580
584
588
592
596
600
604
608
612
616
620
624
628
632
636
640
644
648
652
656
660
664
668
672
676
680
684
688
692
696
700
704
708
712
716
720
724
728
732
736
740
744
748
752
756
760
764
768
</DataArray>
<DataArray type="UInt8" Name="types" format="ascii" RangeMin="9" RangeMax="9">
9
9
9
9
9
9
9
9
9
9
9
9
9
9
9
9
9
9
9
9
9
9
9
9
9
9
9
9
9
9
9
9
9
9
9
9
9
9
9
9
9
9
9
9
9
9
9
9
9
9
9
9
9
9
9
9
9
9
9
9
9
9
9
9
9
9
9
9
9
9
9
9
9
9
9
9
9
9
9
9
9
9
9
9
9
9
9
9
9
9
9
9
9
9
9
9
9
9
9
9
9
9
9
9
9
9
9
9
9
9
9
9
9
9
9
9
9
9
9
9
9
9
9
9
9
9
9
9
9
9
9
9
9
9
9
9
9
9
9
9
9
9
9
9
9
9
9
9
9
9
9
9
9
9
9
9
9
9
9
9
9
9
9
9
9
9
9
9
9
9
9
9
9
9
9
9
9
9
9
9
9
9
9
9
9
9
9
9
9
9
9
9
</DataArray>
</Cells>
</Piece>
</UnstructuredGrid>
</VTKFile>
