<?xml version="1.0"?>
<VTKFile type="UnstructuredGrid" version="0.1" byte_order="LittleEndian" compressor="vtkZLibDataCompressor">
<UnstructuredGrid>
<Piece NumberOfPoints="218" NumberOfCells="192">
<PointData>
<DataArray type="Float64" Name="displacement" NumberOfComponents="3" format="ascii" >
0.0162687189761 -0.00261628568463  0.
0.0096689260038 -0.0154153270714  0.
0.0174168352188 -0.00345241795921  0.
0.0175936056035 -0.00456459937822  0.
0.0172189540923 -0.00581144166903  0.
0.0164861075032 -0.00715086102961  0.
0.0155119521781 -0.00855335652469  0.
0.0143802361308 -0.00999076862122  0.
0.0131593851101 -0.0114313893784  0.
0.0119127840645 -0.0128384689813  0.
0.0107098976584 -0.0141719382247  0.
0.00865295905328 -0.0222050784095  0.
0.00969241660732 -0.0166263345127  0.
0.00964714518503 -0.0176721441496  0.
0.00957296065536 -0.018573453951  0.
0.00948152794787 -0.0193448317425  0.
0.00937760770643 -0.0200009696114  0.
0.00926263176463 -0.0205577457727  0.
0.00913657340897 -0.0210329134003  0.
0.00899836570613 -0.0214468655883  0.
0.00884411696964 -0.021824642485  0.
0.0115098162495 -0.0170246849703  0.
0.0088960596603 -0.0219369533868  0.
0.00918656650035 -0.0215992345285  0.
0.00951074860881 -0.0212009381188  0.
0.00984739498211 -0.02074389085  0.
0.0101809506999 -0.0202315349919  0.
0.0104997815225 -0.019668608626  0.
0.0107959202508 -0.0190605577094  0.
0.0110644393705 -0.01841315744  0.
0.0113027498283 -0.0177323682694  0.
0.0127648191669 -0.0165798179244  0.
0.0139947123804 -0.0159301088355  0.
0.0151497857654 -0.0150477068025  0.
0.0161737524434 -0.0139064201088  0.
0.0170076915464 -0.0124956325876  0.
0.01759494027 -0.0108330188301  0.
0.0178841872103 -0.0089683491275  0.
0.0178219919125 -0.0069689894608  0.
0.0173407343511 -0.00489778513777  0.
0.0177173447758 -0.00568857711307  0.
0.0178036177977 -0.00782425170742  0.
0.0176115762654 -0.00984607668879  0.
0.0171684235466 -0.0117030883427  0.
0.0165063742687 -0.0133393701705  0.
0.015663445806 -0.0147179259701  0.
0.0146813807793 -0.0158282518347  0.
0.0136025295052 -0.01668345385  0.
0.0124653582374 -0.0173093782766  0.
0.0176122110408 -0.00674604459619  0.
0.0174545091264 -0.00885142414265  0.
0.0171134615471 -0.0108366647404  0.
0.0165872374645 -0.0126393573772  0.
0.0158992110704 -0.0142142170048  0.
0.0150781701111 -0.0155338742645  0.
0.0141558780951 -0.0165942885351  0.
0.0131629920423 -0.0174108276975  0.
0.0121256866885 -0.0180089546023  0.
0.0171162235996 -0.00794480659178  0.
0.0168488500442 -0.00998698703966  0.
0.0164322035636 -0.0118935051031  0.
0.0158765136974 -0.0136094731009  0.
0.0151999328222 -0.0150974518527  0.
0.0144259986136 -0.0163391595941  0.
0.0135791112853 -0.0173360794436  0.
0.0126814243744 -0.0181055889591  0.
0.0117500403138 -0.018672698943  0.
0.0163371940309 -0.00922284641343  0.
0.0160326027066 -0.0111779300231  0.
0.0156001587182 -0.0129794320402  0.
0.0150571445471 -0.014585316772  0.
0.0144227605272 -0.015968681584  0.
0.0137169445951 -0.0171193096864  0.
0.0129588257132 -0.0180436264704  0.
0.0121641129253 -0.0187606319964  0.
0.0113430879906 -0.0192948780585  0.
0.0153564583343 -0.0105399605857  0.
0.0150591658038 -0.0123847828181  0.
0.0146513531734 -0.014061594301  0.
0.0141537280313 -0.015541737875  0.
0.0135855456001 -0.0168088712918  0.
0.0129645029003 -0.0178603832916  0.
0.0123056397384 -0.0187069108943  0.
0.0116196818338 -0.0193687321492  0.
0.0109117130156 -0.0198698091968  0.
0.0142417868563 -0.0118625612884  0.
0.0139802090413 -0.013575096562  0.
0.0136244523331 -0.015111996274  0.
0.0131950459367 -0.0164561742406  0.
0.012710336797 -0.0176005902348  0.
0.0121859103969 -0.0185491923806  0.
0.0116335371371 -0.0193161561928  0.
0.0110599045946 -0.0199226665907  0.
0.0104659353993 -0.0203918661161  0.
0.0130544216666 -0.0131588751109  0.
0.0128473526814 -0.0147204316102  0.
0.0125609239534 -0.0161065650588  0.
0.0122137753587 -0.0173090103244  0.
0.0118229536094 -0.0183282557403  0.
0.0114019954474 -0.0191735756972  0.
0.0109599278774 -0.0198619327677  0.
0.0105000458412 -0.0204151782784  0.
0.0100194672567 -0.0208554473377  0.
0.0118550367888 -0.0143981176352  0.
0.0117136397257 -0.0157961357203  0.
0.011504159204 -0.017025189397  0.
0.0112450560101 -0.0180836524803  0.
0.0109520840302 -0.0189783675809  0.
0.0106365417793 -0.0197225861233  0.
0.0103050139415 -0.0203351676544  0.
0.00995837468121 -0.0208386150713  0.
0.00958981610438 -0.0212547071669  0.
0.0107108071638 -0.015555133452  0.
0.0106324533942 -0.0167839116767  0.
0.0104968103497 -0.0178518501425  0.
0.0103242142844 -0.0187663963239  0.
0.0101276829178 -0.0195393802002  0.
0.00991519451178 -0.0201865989684  0.
0.00969064601151 -0.0207275077509  0.
0.00945361287572 -0.021184508007  0.
0.00919648913758 -0.0215816111799  0.
0.0118319043319 -0.0155640881382  0.
0.0116866633323 -0.0162966951168  0.
0.0165101303442 -0.00382542589431  0.
0.0163779972745 -0.00328816742362  0.
0.0174565874273 -0.00549831486633  0.
0.0180769271591 -0.00715134674944  0.
0.0183329222401 -0.00875585951178  0.
0.0181789408124 -0.0102554025468  0.
0.0176404174362 -0.0116006491919  0.
0.0167808108942 -0.0127564850519  0.
0.0156812237146 -0.0137120094691  0.
0.0144254929109 -0.0144815443274  0.
0.0131090722411 -0.0150917705364  0.
0.0129635512933 -0.0158488802612  0.
0.0142337777828 -0.0152236133773  0.
0.0154312335151 -0.0143965626528  0.
0.0164846042052 -0.0133434075109  0.
0.0173231526647 -0.0120524306007  0.
0.0178828054163 -0.0105384104032  0.
0.0181106589447 -0.00884580664286  0.
0.0179710787886 -0.0070435758569  0.
0.0174344180344 -0.00519261971525  0.
0.0 0.0  0.
0.0 0.00971941938299  0.
0.0 0.00411079935313  0.
0.00769868547045 0.0055705344554  0.
0.0128056307686 0.00134138837229  0.
0.0101572072351 -0.00181376756638  0.
0.0146858996597 -0.00256770305178  0.
0.0091225334925 0.00194896334  0.
0.0139433473635 -0.000750997942716  0.
0.0 0.0  0.
0.0 0.0  0.
0.0 0.0  0.
0.0 0.0  0.
0.0 0.0  0.
0.0 0.0  0.
0.0 0.0  0.
0.0 0.0  0.
0.0 0.0  0.
0.0 0.0  0.
0.0100817648851 -0.0133740215871  0.
0.00635479081719 -0.00872479945822  0.
0.00846936275044 -0.00794297079867  0.
0.0118068017841 -0.0127119488468  0.
0.010030298915 -0.00757595772154  0.
0.0134369665436 -0.0120966509188  0.
0.0113704907649 -0.00723686066105  0.
0.0148967294353 -0.0114458622876  0.
0.0124961119169 -0.00686111964359  0.
0.0161428008669 -0.0106653920375  0.
0.0133571796787 -0.00641853026092  0.
0.0170857322855 -0.00972414957003  0.
0.0138856250622 -0.00589813735029  0.
0.017630909834 -0.00862119059343  0.
0.0140101083239 -0.00529057054022  0.
0.0177013065417 -0.00737086646994  0.
0.013640751819 -0.00455977223219  0.
0.0172453946099 -0.00597767862881  0.
0.0126089766868 -0.00361047895421  0.
0.0161936341316 -0.00436638708648  0.
0.0 -0.0241619381781  0.
0.0 -0.00272003697544  0.
0.0 -0.00533275745663  0.
0.0 -0.00782906901383  0.
0.0 -0.0102033170501  0.
0.0 -0.0124496985165  0.
0.0 -0.0145618142292  0.
0.0 -0.0165331472098  0.
0.0 -0.0183579298374  0.
0.0 -0.0200322793055  0.
0.0 -0.0215554776341  0.
0.0 -0.0229311460733  0.
0.00516212904003 -0.0224757003449  0.
0.00766196990357 -0.0225219846064  0.
0.00635108010159 -0.0102031753446  0.
0.00631643884795 -0.0116462686379  0.
0.00626438645753 -0.0130384982906  0.
0.00619396706715 -0.0143759904284  0.
0.00610215617475 -0.0156551798123  0.
0.00598737565663 -0.0168706307307  0.
0.00585089257331 -0.0180151788451  0.
0.005697846327 -0.0190808782279  0.
0.00553810812222 -0.0200605581148  0.
0.00538661402493 -0.0209499924866  0.
0.00526252776807 -0.021750428132  0.
0.00994774649323 -0.014400719688  0.
0.00982230351375 -0.0153689314896  0.
0.00967910808056 -0.0163025595767  0.
0.00950977176682 -0.0172030402787  0.
0.00931134787427 -0.0180660884099  0.
0.00908388317965 -0.0188854313024  0.
0.00883066097973 -0.0196537600119  0.
0.00855910494486 -0.0203634098764  0.
0.0082816961205 -0.0210073964282  0.
0.00801669743084 -0.0215808940589  0.
0.00778833437793 -0.0220833897026  0.
</DataArray>
<DataArray type="Float64" Name="stresses" NumberOfComponents="4" format="ascii" >
-33436.9140609 -17605.7164157 -25010.8889335 7877.92935302  
-18306.0650934 -18420.0930811 -17995.8175055 991.243063471  
11654.730024 16526.1998538 13808.6556401 11265.7029934  
6652.89552451 7235.29956662 6805.21559465 7391.03827065  
7810.94301329 6488.25338489 7006.60623511 5105.28575951  
6678.24108454 4407.44770862 5431.98750865 3583.71910777  
3971.22714902 1294.5222391 2580.21720018 2515.86628323  
336.293703847 -2362.72224406 -992.949984703 1743.04372015  
-3420.51997336 -5780.82134972 -4508.65724831 1183.98757265  
-6378.64221209 -7972.74384825 -7032.17916957 833.202228736  
-10064.5557288 -10467.5460805 -10060.7298866 912.128745061  
-8287.29410424 -15063.0090016 -11441.6485218 -33.0846054872  
-14139.5980863 -15026.1338946 -14291.2086706 813.173537248  
-15006.2632328 -17272.0373264 -15816.367274 253.055766651  
-15860.0251417 -18801.9128937 -16984.3496374 -186.53858487  
-15381.0384387 -18716.4974906 -16707.7926054 -461.312645799  
-14073.7784914 -17681.2457757 -15559.9618909 -587.968833828  
-12433.5460712 -16278.0448724 -14068.6795624 -587.000317375  
-10892.1210308 -14991.6949095 -12683.0698108 -465.333101719  
-9752.52072126 -14192.0214668 -11732.8256721 -201.363441622  
-7903.0223745 -12993.3468078 -10239.2208993 292.092351363  
-17895.0059546 -36082.8125833 -26449.1310835 166.609468258  
4086.40954731 -4082.56526422 1.88369871171 -451.05414553  
1972.22247991 -7816.39628537 -2863.64516467 -863.605508511  
578.450472725 -10721.0650661 -4969.88115077 -1081.66297626  
-1202.62299953 -13928.9655106 -7414.47836998 -1130.6420827  
-3310.61182089 -17343.0665724 -10120.3024127 -1056.03357851  
-5713.71856949 -20906.4047246 -13043.8604141 -891.264566013  
-8400.61208936 -24594.731285 -16167.7182534 -664.613191117  
-11354.1441195 -28385.3618128 -19472.3579068 -399.522789247  
-14511.939144 -32209.9746267 -22893.7377476 -115.652077081  
-22993.248369 -40951.0812345 -31332.7215057 373.190881401  
-23345.1590489 -40632.6649698 -31349.1337692 852.420263762  
-23995.1450774 -39897.7018306 -31307.4949849 1427.28642644  
-25097.706199 -38843.9405642 -31331.406914 2149.24665133  
-26904.6484353 -37730.978153 -31671.4570283 3010.71318794  
-29639.8947351 -36844.0766871 -32577.1459969 3959.94525631  
-34066.7771622 -36999.5983497 -34822.5240008 4938.14229406  
-41322.6072903 -39268.7981711 -39489.7886761 5897.32514873  
-53914.1750596 -45444.6646147 -48685.8314404 7070.88982079  
990.587220782 3870.53867595 2381.9516894 8003.22208218  
-12711.2440294 -13959.5824441 -13068.704972 6249.14087715  
-15377.7562498 -20562.3049727 -17610.629999 5043.28950177  
-16301.6652945 -24920.0482266 -20198.6396254 3955.59667394  
-16693.158949 -28215.9502407 -22005.4635029 2931.97986465  
-17102.7688776 -30954.5109081 -23548.067095 2007.6929877  
-17625.7622513 -33203.4843619 -24906.3308404 1227.80740053  
-18186.0074946 -34907.0752017 -26015.6105212 607.566962962  
-18707.2362467 -36054.0882489 -26833.0490028 113.961188308  
-5765.32575239 -7032.37296916 -6270.87237356 6199.74367316  
-9612.12323401 -13777.6199494 -11460.9741599 5159.59450957  
-12216.0821243 -19298.9727418 -15442.3768844 4231.95839267  
-13028.4004836 -22790.7028808 -17551.3606485 3317.60872083  
-13449.9383291 -25477.9975707 -19074.6885909 2418.05280621  
-13854.4625922 -27685.9577479 -20354.8059666 1584.57481273  
-14356.4914724 -29519.355812 -21499.1651694 871.60636677  
-14897.4148478 -30959.5532998 -22469.9143923 303.523204739  
-15407.6250382 -32011.460281 -23235.3518064 -140.536099798  
-6786.45196331 -10031.5122468 -8240.80246294 4615.94449067  
-8342.85576884 -14182.1534388 -11037.2545118 4099.53300584  
-9304.37266255 -17509.5946337 -13138.8439752 3414.03749728  
-10028.8531524 -20362.3807398 -14891.7046072 2648.86047363  
-10438.2798355 -22551.057393 -16164.775242 1865.73973874  
-10858.4143218 -24364.0285777 -17258.9970207 1131.58896796  
-11346.7811744 -25872.0716438 -18237.2378809 503.72499423  
-11856.9848078 -27085.5322041 -19081.8333358 9.01747263189  
-12286.6723938 -27987.9455939 -19734.5628139 -368.895676373  
-5892.08974489 -10008.7987413 -7791.43535821 3393.77379959  
-6663.48028747 -13240.0017156 -9752.70618153 3108.34703341  
-7052.04638011 -15688.0090814 -11142.6271762 2602.51833547  
-7422.85035686 -17805.9283668 -12362.1015746 1970.94305249  
-7769.22658449 -19563.3887482 -13392.981513 1304.16121536  
-8144.72017349 -21016.2694671 -14288.8849239 677.198011492  
-8582.5413673 -22235.0643204 -15100.626787 147.274268174  
-9023.40520516 -23233.6376415 -15805.9509949 -260.178783812  
-9354.68170615 -23994.6575773 -16341.1762489 -559.775741229  
-4424.87847144 -8739.78028025 -6450.68278833 2450.66075507  
-4846.11140178 -11483.8437327 -8001.67801588 2253.87477816  
-5014.24984339 -13490.331411 -9067.24481467 1852.53607018  
-5200.14733416 -15150.7734869 -9971.95120232 1330.61152934  
-5414.4975134 -16503.3953706 -10739.7675131 773.708337966  
-5695.79007156 -17626.3956445 -11427.8710009 256.221916559  
-6031.89383581 -18570.5218228 -12055.1836727 -168.567316012  
-6369.3224362 -19370.845413 -12612.6822461 -479.244283371  
-6604.98985524 -20025.1188633 -13048.7532721 -691.425070832  
-2761.58420333 -6792.9618598 -4681.72757094 1730.98328977  
-3113.55615351 -9287.63625401 -6076.58427968 1553.29661135  
-3209.37864688 -11031.4050432 -6977.98400814 1212.15938182  
-3259.0501401 -12346.8643006 -7646.89807596 773.88166453  
-3333.36277608 -13355.9057514 -8177.74157849 315.403367667  
-3472.49579074 -14164.4159349 -8642.08674556 -95.5920838903  
-3657.39192465 -14839.348303 -9063.40271156 -411.77822444  
-3854.85756083 -15452.0768694 -9460.39787083 -617.990265192  
-4002.48241158 -16044.4517572 -9822.9977427 -735.252193249  
-1209.61018842 -4557.0506668 -2825.66381906 1210.09007609  
-1694.06707931 -6975.71707554 -4248.19423588 1027.45121  
-1688.38887817 -8447.59210414 -4966.63068134 717.493358901  
-1542.55574491 -9397.66417472 -5360.70776062 339.952193339  
-1457.64605829 -10088.7716116 -5657.74465825 -34.3515465224  
-1439.65782371 -10611.3944104 -5905.01559471 -345.218276972  
-1425.55420589 -11007.6255583 -6092.25808447 -552.066574202  
-1406.20399418 -11393.1355776 -6271.67639017 -645.246737094  
-1460.71371461 -11963.0867129 -6577.66220946 -656.875046385  
-507.379484834 -2817.22943593 -1629.05837118 914.777124519  
-893.505316467 -4952.46087932 -2864.52343594 706.435593586  
-339.168114777 -5721.08849934 -2969.52574092 395.326559721  
73.5357931492 -6246.87811908 -3024.93773971 54.7111780862  
308.767579978 -6648.18689625 -3106.31546498 -248.576413654  
440.42990719 -6952.55098708 -3190.93932915 -466.488234364  
611.273897359 -7130.39855376 -3194.37108164 -566.487369465  
1021.78428311 -7125.80100092 -2990.96819172 -539.10987095  
1385.48953539 -7391.4925096 -2942.94145736 -420.091085486  
-2518.95701271 -3601.01586069 -2998.78670797 932.278957306  
-59.0174762906 -2743.94833399 -1373.45324704 603.832315045  
1311.97547393 -2495.84363669 -580.095399754 235.470647855  
1899.41845933 -2646.7081766 -366.171961463 -85.0738316145  
2105.56394206 -2931.30576302 -404.613492272 -319.524632963  
2146.83979971 -3238.23854671 -534.785386029 -447.054806983  
2239.55989472 -3447.63298709 -591.955815262 -450.913722376  
2789.0845807 -3281.56888549 -241.317309346 -313.549791076  
4649.13283365 -2134.38723585 1232.22534292 -39.2173665864  
-24250.8503359 -42826.2959681 -32867.8016889 587.162317485  
-20051.2272457 -38498.6429931 -28689.436417 420.17833963  
7692.38856296 21969.5460823 14534.3479762 4746.1539759  
-534.396291271 15566.8792527 7365.91665112 5162.35404305  
-13481.4174736 -3242.05339027 -8194.50072328 5355.29281365  
-17187.5584689 -11842.250766 -14224.6065251 5242.30944884  
-20949.0903816 -21067.0547009 -20587.9110904 4881.31689918  
-22604.5806783 -28214.5942333 -24901.3957067 4338.97235437  
-23756.6826769 -34228.6748932 -28412.8252094 3644.54019344  
-24935.1266934 -39284.8583792 -31467.7926855 2862.74379439  
-26273.0532411 -43384.6845187 -34132.2915023 2082.93432947  
-28664.7010053 -47371.8798091 -37257.924599 1406.22266961  
-31579.8814349 -50590.0633221 -40263.2729309 903.237163742  
-26721.1527715 -45255.4119211 -35268.5166994 645.261058899  
-27026.0545024 -45028.7767777 -35306.8673273 991.202260752  
-27023.8106234 -43541.3310572 -34576.9194235 1371.35900647  
-27190.8707168 -41257.277641 -33539.5926953 1895.99857474  
-27516.9647897 -38215.5151336 -32208.9151624 2583.12974534  
-27589.8917453 -34109.1496198 -30232.5302689 3420.50817643  
-27385.9737482 -29108.2979218 -27682.1931183 4357.99410505  
-27881.3290941 -24388.1898741 -25612.0642944 5274.0208631  
-37575.9124477 -28199.6004638 -32230.0013266 5912.2521489  
-74996.9614882 -70607.6179676 -71346.2439334 3359.61204819  
-34559.1915426 -23667.6207885 -28531.1380422 1734.4397391  
-78736.4558672 -67553.9403442 -71682.2941436 1904.74064062  
-15265.5682934 -1576.91088958 -8252.81479965 1270.5879225  
-16348.6909778 2212.3979244 -6926.78359618 2243.31931612  
-73309.5045055 -59678.7094476 -65164.2248371 2876.47944602  
-37011.7500481 -21435.4524681 -28639.1292329 3586.35649042  
-46074.2449415 -30986.2712754 -37759.6529463 2023.04731345  
-31826.8598208 -13697.122792 -22306.7514803 2981.71714198  
-152310.152157 -164175.894209 -155078.16272 2425.71173382  
-170848.976888 -177054.159004 -170472.536587 3624.83557015  
-162404.790505 -168427.170941 -162107.661108 4245.46310104  
-154639.579251 -160436.000745 -154387.034198 4771.22754251  
-145989.910943 -151533.430069 -145786.437096 5210.6519513  
-135769.191461 -141020.35855 -135626.879505 5547.17697565  
-123742.398927 -128656.635574 -123675.526905 5757.19199759  
-109720.404658 -114249.971315 -109745.484227 5814.2325337  
-92921.5588974 -97007.1366182 -93065.0608026 5684.44372398  
-71139.911052 -74771.7026691 -71496.6907234 5304.47045223  
-44073.1556927 -62659.930034 -52299.2120061 919.242399003  
-79101.2050636 -95149.0641675 -85382.6319233 1327.4739207  
-73155.224163 -86890.2985201 -78422.3061147 2157.30278765  
-44169.7636242 -62215.4830744 -52128.7708823 1223.59772727  
-77411.6154278 -88992.6003004 -81538.0657068 2985.20095418  
-41098.1164164 -57636.0783738 -48379.7554472 1900.1582755  
-78802.3651894 -89165.1231248 -82304.0692739 3817.28985297  
-41852.5688107 -56547.154522 -48215.864433 2815.14745254  
-79674.4335722 -88682.9287163 -82495.1075214 4551.58442558  
-43367.2351949 -55633.5159972 -48510.3680841 3763.83127745  
-80681.4020129 -88006.7994149 -82657.2186996 5102.8058455  
-45728.841082 -54725.8482881 -49222.7977914 4529.52272254  
-82092.7525158 -87350.1952475 -83027.044404 5378.57878399  
-48567.9040132 -53493.0216681 -50009.8535838 4937.42715217  
-84307.9665541 -87056.1194075 -83968.4021212 5313.99047388  
-51266.1402085 -51486.702959 -50348.8931521 4896.86066792  
-88481.1754305 -88027.6746095 -86489.3365196 4849.40886826  
-53304.4160325 -48171.418011 -49723.1586813 4465.43523004  
-98042.7370448 -91768.0567995 -93007.2889837 3881.03506753  
-48141.4076613 -37553.3714557 -41990.4417673 3855.21082752  
2117.51281267 -7694.67561936 -2732.80977528 813.697067459  
-112563.576259 -129319.281402 -118522.600254 2030.83534059  
-102331.978386 -118585.48298 -108249.556069 1866.63810556  
-91738.8247037 -107450.542491 -97602.7899253 1701.789551  
-81003.2641698 -96133.7833248 -86797.1532723 1542.7332372  
-70163.0182793 -84668.9764802 -75867.6774321 1391.28552396  
-59217.1548266 -73053.7394683 -64812.7382045 1249.71102802  
-48164.0331477 -61290.2027147 -53632.5755726 1121.53090413  
-37011.0358108 -49396.5251826 -42339.7048868 1011.13120179  
-25775.0967327 -37408.6222846 -30960.0223185 922.850681544  
-14476.4373129 -25373.9032954 -19526.666898 859.71199106  
-2799.70917116 -12995.9609474 -7739.87835808 824.025217218  
2066.04369283 -7592.49545925 -2707.96136555 63.4492835805  
-1653.89685913 -10315.495208 -5865.0021129 -327.459815831  
-76629.6001596 -92931.9935898 -83085.1809372 1279.89582915  
-68530.3410756 -84576.2024368 -75022.206321 1103.20976082  
-60693.6769136 -76338.1919992 -67145.6157673 924.88465937  
-52956.9484781 -68146.8848544 -59340.8783329 739.212264434  
-45282.0859522 -59957.5964149 -51567.4443599 546.584862779  
-37661.8520767 -51740.9681071 -43807.3818901 354.658187509  
-30097.8605242 -43482.9696606 -36054.6067905 177.972064388  
-22595.813034 -35189.5046497 -28314.805665 37.1917105491  
-15163.6888152 -26892.3783444 -20607.4729082 -43.2228756194  
-7802.88658315 -18646.7209581 -12960.3076952 -40.1629113019  
-662.971002764 -10709.4890763 -5572.50543873 17.9820469824  
-43915.7890113 -61873.5138696 -51836.7584117 778.395653395  
-39025.4401391 -56258.4931406 -46689.127307 519.04912619  
-34386.9835813 -51131.408859 -41904.0122958 250.142328231  
-29792.9342642 -46020.9882168 -37148.8220157 -36.0458379666  
-25198.2266093 -40808.7822254 -32343.434329 -327.250971751  
-20611.9399575 -35473.112543 -27481.6757252 -605.102684693  
-16054.1395858 -30018.9849314 -22575.8310134 -844.998681665  
-11543.379918 -24467.0825037 -17645.1265866 -1015.6631051  
-7093.92498154 -18859.0208516 -12716.9434583 -1080.21543254  
-2751.50029334 -13302.7844343 -7866.59951654 -999.470612523  
886.128256243 -8494.38371542 -3728.045175 -649.802373838  
</DataArray>
<DataArray type="Float64" Name="equivalent_strain" NumberOfComponents="1" format="ascii" >
0.0  
0.0  
0.0  
0.0  
0.0  
0.0  
0.0  
0.0  
0.0  
0.0  
0.0  
0.0  
0.0  
0.0  
0.0  
0.0  
0.0  
0.0  
0.0  
0.0  
0.0  
0.0  
0.0  
0.0  
0.0  
0.0  
0.0  
0.0  
0.0  
0.0  
0.0  
0.0  
0.0  
0.0  
0.0  
0.0  
0.0  
0.0  
0.0  
0.0  
0.0  
0.0  
0.0  
0.0  
0.0  
0.0  
0.0  
0.0  
0.0  
0.0  
0.0  
0.0  
0.0  
0.0  
0.0  
0.0  
0.0  
0.0  
0.0  
0.0  
0.0  
0.0  
0.0  
0.0  
0.0  
0.0  
0.0  
0.0  
0.0  
0.0  
0.0  
0.0  
0.0  
0.0  
0.0  
0.0  
0.0  
0.0  
0.0  
0.0  
0.0  
0.0  
0.0  
0.0  
0.0  
0.0  
0.0  
0.0  
0.0  
0.0  
0.0  
0.0  
0.0  
0.0  
0.0  
0.0  
0.0  
0.0  
0.0  
0.0  
0.0  
0.0  
0.0  
0.0  
0.0  
0.0  
0.0  
0.0  
0.0  
0.0  
0.0  
0.0  
0.0  
0.0  
0.0  
0.0  
0.0  
0.0  
0.0  
0.0  
0.0  
0.0  
0.0  
0.0  
0.0  
0.0  
0.0  
0.0  
0.0  
0.0  
0.0  
0.0  
0.0  
0.0  
0.0  
0.0  
0.0  
0.0  
0.0  
0.0  
0.0  
0.0  
0.0  
0.0  
0.0  
0.0  
0.0  
0.0  
0.0  
0.0  
0.0  
0.0  
0.0  
0.0  
0.0  
0.0  
0.0  
0.0  
0.0  
0.0  
0.0  
0.0  
0.0  
0.0  
0.0  
0.0  
0.0  
0.0  
0.0  
0.0  
0.0  
0.0  
0.0  
0.0  
0.0  
0.0  
0.0  
0.0  
0.0  
0.0  
0.0  
0.0  
0.0  
0.0  
0.0  
0.0  
0.0  
0.0  
0.0  
0.0  
0.0  
0.0  
0.0  
0.0  
0.0  
0.0  
0.0  
0.0  
0.0  
0.0  
0.0  
0.0  
0.0  
0.0  
0.0  
0.0  
0.0  
0.0  
0.0  
0.0  
0.0  
0.0  
0.0  
0.0  
0.0  
0.0  
0.0  
0.0  
</DataArray>
</PointData>
<CellData>
</CellData>
<Points>
<DataArray type="Float64" Name="Points" NumberOfComponents="3" format="ascii">
45.0 30.0 0.0
35.0 40.0 0.0
44.0 31.0 0.0
43.0 32.0 0.0
42.0 33.0 0.0
41.0 34.0 0.0
40.0 35.0 0.0
39.0 36.0 0.0
38.0 37.0 0.0
37.0 38.0 0.0
36.0 39.0 0.0
25.0 40.0 0.0
34.0 40.0 0.0
33.0 40.0 0.0
32.0 40.0 0.0
31.0 40.0 0.0
30.0 40.0 0.0
29.0 40.0 0.0
28.0 40.0 0.0
27.0 40.0 0.0
26.0 40.0 0.0
25.0 30.0 0.0
25.0 39.0 0.0
25.0 38.0 0.0
25.0 37.0 0.0
25.0 36.0 0.0
25.0 35.0 0.0
25.0 34.0 0.0
25.0 33.0 0.0
25.0 32.0 0.0
25.0 31.0 0.0
27.0 30.0 0.0
29.0 30.0 0.0
31.0 30.0 0.0
33.0 30.0 0.0
35.0 30.0 0.0
37.0 30.0 0.0
39.0 30.0 0.0
41.0 30.0 0.0
43.0 30.0 0.0
42.1 31.0 0.0
40.2 31.0 0.0
38.3 31.0 0.0
36.4 31.0 0.0
34.5 31.0 0.0
32.6 31.0 0.0
30.7 31.0 0.0
28.8 31.0 0.0
26.9 31.0 0.0
41.2 32.0 0.0
39.4 32.0 0.0
37.6 32.0 0.0
35.8 32.0 0.0
34.0 32.0 0.0
32.2 32.0 0.0
30.4 32.0 0.0
28.6 32.0 0.0
26.8 32.0 0.0
40.3 33.0 0.0
38.6 33.0 0.0
36.9 33.0 0.0
35.2 33.0 0.0
33.5 33.0 0.0
31.8 33.0 0.0
30.1 33.0 0.0
28.4 33.0 0.0
26.7 33.0 0.0
39.4 34.0 0.0
37.8 34.0 0.0
36.2 34.0 0.0
34.6 34.0 0.0
33.0 34.0 0.0
31.4 34.0 0.0
29.8 34.0 0.0
28.2 34.0 0.0
26.6 34.0 0.0
38.5 35.0 0.0
37.0 35.0 0.0
35.5 35.0 0.0
34.0 35.0 0.0
32.5 35.0 0.0
31.0 35.0 0.0
29.5 35.0 0.0
28.0 35.0 0.0
26.5 35.0 0.0
37.6 36.0 0.0
36.2 36.0 0.0
34.8 36.0 0.0
33.4 36.0 0.0
32.0 36.0 0.0
30.6 36.0 0.0
29.2 36.0 0.0
27.8 36.0 0.0
26.4 36.0 0.0
36.7 37.0 0.0
35.4 37.0 0.0
34.1 37.0 0.0
32.8 37.0 0.0
31.5 37.0 0.0
30.2 37.0 0.0
28.9 37.0 0.0
27.6 37.0 0.0
26.3 37.0 0.0
35.8 38.0 0.0
34.6 38.0 0.0
33.4 38.0 0.0
32.2 38.0 0.0
31.0 38.0 0.0
29.8 38.0 0.0
28.6 38.0 0.0
27.4 38.0 0.0
26.2 38.0 0.0
34.9 39.0 0.0
33.8 39.0 0.0
32.7 39.0 0.0
31.6 39.0 0.0
30.5 39.0 0.0
29.4 39.0 0.0
28.3 39.0 0.0
27.2 39.0 0.0
26.1 39.0 0.0
25.0 28.0 0.0
25.0 29.0 0.0
45.0 28.0 0.0
45.0 29.0 0.0
43.0 28.0 0.0
41.0 28.0 0.0
39.0 28.0 0.0
37.0 28.0 0.0
35.0 28.0 0.0
33.0 28.0 0.0
31.0 28.0 0.0
29.0 28.0 0.0
27.0 28.0 0.0
27.0 29.0 0.0
29.0 29.0 0.0
31.0 29.0 0.0
33.0 29.0 0.0
35.0 29.0 0.0
37.0 29.0 0.0
39.0 29.0 0.0
41.0 29.0 0.0
43.0 29.0 0.0
75.0 0.0 0.0
75.0 30.0 0.0
75.0 15.0 0.0
57.8571428571 30.0 0.0
49.2857142857 30.0 0.0
57.8571428571 16.0 0.0
49.2857142857 24.0 0.0
57.8571428571 23.0 0.0
49.2857142857 27.0 0.0
0.0 0.0 0.0
7.5 0.0 0.0
15.0 0.0 0.0
22.5 0.0 0.0
30.0 0.0 0.0
37.5 0.0 0.0
45.0 0.0 0.0
52.5 0.0 0.0
60.0 0.0 0.0
67.5 0.0 0.0
21.4285714286 24.0 0.0
14.2857142857 16.0 0.0
18.6428571429 16.0 0.0
24.2142857143 24.0 0.0
23.0 16.0 0.0
27.0 24.0 0.0
27.3571428571 16.0 0.0
29.7857142857 24.0 0.0
31.7142857143 16.0 0.0
32.5714285714 24.0 0.0
36.0714285714 16.0 0.0
35.3571428571 24.0 0.0
40.4285714286 16.0 0.0
38.1428571429 24.0 0.0
44.7857142857 16.0 0.0
40.9285714286 24.0 0.0
49.1428571429 16.0 0.0
43.7142857143 24.0 0.0
53.5 16.0 0.0
46.5 24.0 0.0
0.0 40.0 0.0
0.0 3.33333333333 0.0
0.0 6.66666666667 0.0
0.0 10.0 0.0
0.0 13.3333333333 0.0
0.0 16.6666666667 0.0
0.0 20.0 0.0
0.0 23.3333333333 0.0
0.0 26.6666666667 0.0
0.0 30.0 0.0
0.0 33.3333333333 0.0
0.0 36.6666666667 0.0
14.2857142857 40.0 0.0
21.4285714286 40.0 0.0
14.2857142857 18.0 0.0
14.2857142857 20.0 0.0
14.2857142857 22.0 0.0
14.2857142857 24.0 0.0
14.2857142857 26.0 0.0
14.2857142857 28.0 0.0
14.2857142857 30.0 0.0
14.2857142857 32.0 0.0
14.2857142857 34.0 0.0
14.2857142857 36.0 0.0
14.2857142857 38.0 0.0
21.4285714286 25.3333333333 0.0
21.4285714286 26.6666666667 0.0
21.4285714286 28.0 0.0
21.4285714286 29.3333333333 0.0
21.4285714286 30.6666666667 0.0
21.4285714286 32.0 0.0
21.4285714286 33.3333333333 0.0
21.4285714286 34.6666666667 0.0
21.4285714286 36.0 0.0
21.4285714286 37.3333333333 0.0
21.4285714286 38.6666666667 0.0
</DataArray>
</Points>
<Cells>
<DataArray type="Int64" Name="connectivity" format="ascii">
0 2 40 39 
2 3 49 40 
3 4 58 49 
4 5 67 58 
5 6 76 67 
6 7 85 76 
7 8 94 85 
8 9 103 94 
9 10 112 103 
10 1 12 112 
39 40 41 38 
40 49 50 41 
49 58 59 50 
58 67 68 59 
67 76 77 68 
76 85 86 77 
85 94 95 86 
94 103 104 95 
103 112 113 104 
112 12 13 113 
38 41 42 37 
41 50 51 42 
50 59 60 51 
59 68 69 60 
68 77 78 69 
77 86 87 78 
86 95 96 87 
95 104 105 96 
104 113 114 105 
113 13 14 114 
37 42 43 36 
42 51 52 43 
51 60 61 52 
60 69 70 61 
69 78 79 70 
78 87 88 79 
87 96 97 88 
96 105 106 97 
105 114 115 106 
114 14 15 115 
36 43 44 35 
43 52 53 44 
52 61 62 53 
61 70 71 62 
70 79 80 71 
79 88 89 80 
88 97 98 89 
97 106 107 98 
106 115 116 107 
115 15 16 116 
35 44 45 34 
44 53 54 45 
53 62 63 54 
62 71 72 63 
71 80 81 72 
80 89 90 81 
89 98 99 90 
98 107 108 99 
107 116 117 108 
116 16 17 117 
34 45 46 33 
45 54 55 46 
54 63 64 55 
63 72 73 64 
72 81 82 73 
81 90 91 82 
90 99 100 91 
99 108 109 100 
108 117 118 109 
117 17 18 118 
33 46 47 32 
46 55 56 47 
55 64 65 56 
64 73 74 65 
73 82 83 74 
82 91 92 83 
91 100 101 92 
100 109 110 101 
109 118 119 110 
118 18 19 119 
32 47 48 31 
47 56 57 48 
56 65 66 57 
65 74 75 66 
74 83 84 75 
83 92 93 84 
92 101 102 93 
101 110 111 102 
110 119 120 111 
119 19 20 120 
31 48 30 21 
48 57 29 30 
57 66 28 29 
66 75 27 28 
75 84 26 27 
84 93 25 26 
93 102 24 25 
102 111 23 24 
111 120 22 23 
120 20 11 22 
121 133 134 122 
133 132 135 134 
132 131 136 135 
131 130 137 136 
130 129 138 137 
129 128 139 138 
128 127 140 139 
127 126 141 140 
126 125 142 141 
125 123 124 142 
122 134 31 21 
134 135 32 31 
135 136 33 32 
136 137 34 33 
137 138 35 34 
138 139 36 35 
139 140 37 36 
140 141 38 37 
141 142 39 38 
142 124 0 39 
143 145 150 148 
145 144 146 150 
148 150 151 149 
150 146 147 151 
149 151 124 123 
151 147 0 124 
152 153 164 163 
153 154 166 164 
154 155 168 166 
155 156 170 168 
156 157 172 170 
157 158 174 172 
158 159 176 174 
159 160 178 176 
160 161 180 178 
161 143 148 180 
163 164 165 162 
164 166 167 165 
166 168 169 167 
168 170 171 169 
170 172 173 171 
172 174 175 173 
174 176 177 175 
176 178 179 177 
178 180 181 179 
180 148 149 181 
162 165 133 121 
165 167 132 133 
167 169 131 132 
169 171 130 131 
171 173 129 130 
173 175 128 129 
175 177 127 128 
177 179 126 127 
179 181 125 126 
181 149 123 125 
152 163 196 183 
163 162 207 196 
162 121 122 207 
183 196 197 184 
196 207 208 197 
207 122 21 208 
184 197 198 185 
197 208 209 198 
208 21 30 209 
185 198 199 186 
198 209 210 199 
209 30 29 210 
186 199 200 187 
199 210 211 200 
210 29 28 211 
187 200 201 188 
200 211 212 201 
211 28 27 212 
188 201 202 189 
201 212 213 202 
212 27 26 213 
189 202 203 190 
202 213 214 203 
213 26 25 214 
190 203 204 191 
203 214 215 204 
214 25 24 215 
191 204 205 192 
204 215 216 205 
215 24 23 216 
192 205 206 193 
205 216 217 206 
216 23 22 217 
193 206 194 182 
206 217 195 194 
217 22 11 195 
</DataArray>
<DataArray type="Int64" Name="offsets" format="ascii">
4
8
12
16
20
24
28
32
36
40
44
48
52
56
60
64
68
72
76
80
84
88
92
96
100
104
108
112
116
120
124
128
132
136
140
144
148
152
156
160
164
168
172
176
180
184
188
192
196
200
204
208
212
216
220
224
228
232
236
240
244
248
252
256
260
264
268
272
276
280
284
288
292
296
300
304
308
312
316
320
324
328
332
336
340
344
348
352
356
360
364
368
372
376
380
384
388
392
396
400
404
408
412
416
420
424
428
432
436
440
444
448
452
456
460
464
468
472
476
480
484
488
492
496
500
504
508
512
516
520
524
528
532
536
540
544
548
552
556
560
564
568
572
576
580
584
588
592
596
600
604
608
612
616
620
624
628
632
636
640
644
648
652
656
660
664
668
672
676
680
684
688
692
696
700
704
708
712
716
720
724
728
732
736
740
744
748
752
756
760
764
768
</DataArray>
<DataArray type="UInt8" Name="types" format="ascii" RangeMin="9" RangeMax="9">
9
9
9
9
9
9
9
9
9
9
9
9
9
9
9
9
9
9
9
9
9
9
9
9
9
9
9
9
9
9
9
9
9
9
9
9
9
9
9
9
9
9
9
9
9
9
9
9
9
9
9
9
9
9
9
9
9
9
9
9
9
9
9
9
9
9
9
9
9
9
9
9
9
9
9
9
9
9
9
9
9
9
9
9
9
9
9
9
9
9
9
9
9
9
9
9
9
9
9
9
9
9
9
9
9
9
9
9
9
9
9
9
9
9
9
9
9
9
9
9
9
9
9
9
9
9
9
9
9
9
9
9
9
9
9
9
9
9
9
9
9
9
9
9
9
9
9
9
9
9
9
9
9
9
9
9
9
9
9
9
9
9
9
9
9
9
9
9
9
9
9
9
9
9
9
9
9
9
9
9
9
9
9
9
9
9
9
9
9
9
9
9
</DataArray>
</Cells>
</Piece>
</UnstructuredGrid>
</VTKFile>
