<?xml version="1.0"?>
<VTKFile type="UnstructuredGrid" version="0.1" byte_order="LittleEndian" compressor="vtkZLibDataCompressor">
<UnstructuredGrid>
<Piece NumberOfPoints="218" NumberOfCells="192">
<PointData>
<DataArray type="Float64" Name="displacement" NumberOfComponents="3" format="ascii" >
0.0488276529258 -0.00780074011106  0.
0.0291027213176 -0.0463182836684  0.
0.0526154459063 -0.0103429920213  0.
0.0530207991199 -0.0137284936066  0.
0.0518371258888 -0.0174914502499  0.
0.0496055449277 -0.0215210738902  0.
0.0466628918985 -0.0257340861537  0.
0.0432545674599 -0.0300484632666  0.
0.0395831818673 -0.0343704935093  0.
0.0358376673455 -0.0385908074543  0.
0.0322259642948 -0.0425897601823  0.
0.0260203304031 -0.0666493042365  0.
0.0291725231743 -0.0499489754217  0.
0.0290340435352 -0.0530820331432  0.
0.0288085097591 -0.0557818157248  0.
0.0285307660558 -0.0580918636643  0.
0.0282151898872 -0.0600562743807  0.
0.0278662050931 -0.0617227528271  0.
0.0274838305975 -0.0631445589425  0.
0.0270649369124 -0.0643827754234  0.
0.0265979148837 -0.0655123156713  0.
0.0345679916271 -0.0510819586363  0.
0.026747178793 -0.0658414937657  0.
0.0276164113698 -0.0648252691811  0.
0.0285866734395 -0.0636275414754  0.
0.0295942638535 -0.0622537061772  0.
0.0305925393345 -0.0607140560537  0.
0.031546637077 -0.0590227958964  0.
0.0324327007591 -0.0571962613935  0.
0.033235995972 -0.0552517689336  0.
0.0339488097161 -0.0532071657496  0.
0.038338177654 -0.049745887201  0.
0.0420345542093 -0.0477963459713  0.
0.045508230086 -0.0451494224157  0.
0.0485905327893 -0.0417261739155  0.
0.0511043832379 -0.0374942684892  0.
0.0528781164263 -0.0325061003529  0.
0.0537535778056 -0.0269107334447  0.
0.0535619213229 -0.0209135705037  0.
0.0520961751667 -0.0147047504072  0.
0.0534392318339 -0.0170963900355  0.
0.0536048571831 -0.0234882002475  0.
0.052981109908 -0.029554130579  0.
0.0516202315534 -0.0351254947889  0.
0.0496114422354 -0.0400331903593  0.
0.0470658449167 -0.04416692195  0.
0.0441069936277 -0.0474960273879  0.
0.0408608227127 -0.0500603163696  0.
0.0374420070684 -0.0519376134787  0.
0.0530581429837 -0.0203014358924  0.
0.0525330826614 -0.0265957315215  0.
0.0514734832814 -0.0325427047008  0.
0.0498702486925 -0.0379461867737  0.
0.0477875952845 -0.0426664342555  0.
0.0453099897223 -0.0466214332184  0.
0.0425316730137 -0.0497993868961  0.
0.0395439596591 -0.0522466075337  0.
0.0364249754122 -0.0540395623167  0.
0.0515260725207 -0.0239090230532  0.
0.0506938723033 -0.0300163067889  0.
0.0494194339255 -0.0357248197165  0.
0.0477330530308 -0.0408653666854  0.
0.0456879154508 -0.0453232139055  0.
0.0433535320052 -0.049043124323  0.
0.0408025498361 -0.0520296537261  0.
0.0381010568376 -0.0543349636356  0.
0.0353001545597 -0.0560340411001  0.
0.049159743623 -0.0277465179321  0.
0.048227581273 -0.0335960964414  0.
0.0469136530457 -0.038989949999  0.
0.0452701144642 -0.0437994679543  0.
0.0433544026826 -0.0479426573039  0.
0.0412262070436 -0.051388683968  0.
0.0389427030758 -0.0541568190616  0.
0.0365508649148 -0.056304017431  0.
0.0340814634073 -0.0579038150829  0.
0.0461976690868 -0.0316979646325  0.
0.0452939531078 -0.0372199703728  0.
0.0440590185698 -0.0422409275379  0.
0.0425552776946 -0.0466734280404  0.
0.0408407040908 -0.0504678292634  0.
0.038968563764 -0.0536163038447  0.
0.036984022894 -0.0561507869299  0.
0.0349192464913 -0.0581320400497  0.
0.0327895042015 -0.0596317995959  0.
0.0428399191557 -0.0356645258813  0.
0.0420472263016 -0.040792273459  0.
0.0409717486023 -0.0453947918394  0.
0.0396753235231 -0.0494200172216  0.
0.0382132440291 -0.0528465861095  0.
0.0366325140204 -0.055686457785  0.
0.0349685754691 -0.0579822128437  0.
0.0332415614394 -0.0597973365129  0.
0.0314543174738 -0.0612010973167  0.
0.0392683873027 -0.0395517363938  0.
0.0386416085379 -0.0442285747858  0.
0.0377762930342 -0.0483799830838  0.
0.0367285688938 -0.0519807731981  0.
0.0355497870348 -0.0550323689221  0.
0.0342807699588 -0.0575627432975  0.
0.0329487372073 -0.0596228439537  0.
0.031563671709 -0.0612781548404  0.
0.0301170402789 -0.0625949193294  0.
0.0356640932364 -0.0432676364634  0.
0.0352358327959 -0.0474553872844  0.
0.0346028387959 -0.0511365846644  0.
0.0338206435468 -0.0543062258531  0.
0.0329366443669 -0.0569848860424  0.
0.0319848942347 -0.0592124552447  0.
0.0309852641643 -0.061045555395  0.
0.0299404733674 -0.0625516131162  0.
0.0288302275944 -0.0637957927176  0.
0.0322281118801 -0.0467369387175  0.
0.0319899047894 -0.0504180801308  0.
0.0315794303858 -0.0536168411989  0.
0.0310577106299 -0.056355550697  0.
0.0304638785183 -0.0586697427776  0.
0.029821994465 -0.0606069104494  0.
0.0291438484609 -0.062225437012  0.
0.0284282501189 -0.0635924307541  0.
0.0276524955327 -0.0647797266053  0.
0.0355305535354 -0.046695961572  0.
0.0350965999286 -0.0488959242943  0.
0.0495675182552 -0.0114732070961  0.
0.0491718615763 -0.00984936309255  0.
0.0524203565408 -0.016512488002  0.
0.0542780871807 -0.0214666944408  0.
0.0550461468066 -0.0262742614664  0.
0.0545854221875 -0.0307693150298  0.
0.0529698538215 -0.0348030886673  0.
0.0503896394786 -0.0382697650533  0.
0.047088544103 -0.0411362906599  0.
0.0433185213429 -0.0434454305412  0.
0.0393660848459 -0.0452771967426  0.
0.0389317948423 -0.0475505037171  0.
0.0427475578325 -0.0456736916605  0.
0.0463457516908 -0.04319214027  0.
0.0495123845599 -0.0400326821211  0.
0.0520345830676 -0.0361601135037  0.
0.0537184996622 -0.0316188824388  0.
0.0544028154206 -0.0265430544626  0.
0.0539796310583 -0.0211425829586  0.
0.0523637808212 -0.0155950923182  0.
0.0 0.0  0.
0.0 0.0291226155264  0.
0.0 0.0123218782024  0.
0.0230550012564 0.0167207029877  0.
0.0383698987763 0.00410963590881  0.
0.0304682285119 -0.00543298791388  0.
0.044069027984 -0.00768908299293  0.
0.0273438894562 0.00586646150201  0.
0.0418150416754 -0.00220328853131  0.
0.0 0.0  0.
0.0 0.0  0.
0.0 0.0  0.
0.0 0.0  0.
0.0 0.0  0.
0.0 0.0  0.
0.0 0.0  0.
0.0 0.0  0.
0.0 0.0  0.
0.0 0.0  0.
0.030266622217 -0.0401222817562  0.
0.0190718491096 -0.0261737782621  0.
0.0254152881895 -0.0238282470108  0.
0.0354431246975 -0.0381353523882  0.
0.0300977139865 -0.0227269816585  0.
0.0403345785556 -0.0362885194647  0.
0.034117573208 -0.0217097049394  0.
0.0447141174188 -0.0343358359977  0.
0.0374936188833 -0.0205830796564  0.
0.0484520718149 -0.031995098892  0.
0.0400764501273 -0.0192566549689  0.
0.0512804942627 -0.0291733942167  0.
0.0416625115895 -0.0176975063475  0.
0.0529162223857 -0.025868032117  0.
0.0420380289682 -0.0158768406339  0.
0.0531288950473 -0.022121390794  0.
0.04093164076 -0.0136839750776  0.
0.0517640188272 -0.0179448093491  0.
0.0378326972856 -0.0108301556074  0.
0.0486080721413 -0.013105027499  0.
0.0 -0.0725305735509  0.
0.0 -0.00816083866992  0.
0.0 -0.016000268528  0.
0.0 -0.0234910250627  0.
0.0 -0.0306161307561  0.
0.0 -0.0373581760875  0.
0.0 -0.0436979790916  0.
0.0 -0.0496160128934  0.
0.0 -0.0550949952082  0.
0.0 -0.060123277632  0.
0.0 -0.0646986621679  0.
0.0 -0.0688318859692  0.
0.0155154519118 -0.0674534159641  0.
0.0230346914865 -0.0675931792131  0.
0.0190629382288 -0.0306088911486  0.
0.0189611978652 -0.03493862332  0.
0.0188070978825 -0.0391162567888  0.
0.0185978383143 -0.0431300891985  0.
0.0183244219832 -0.0469693669145  0.
0.0179821659961 -0.0506177635722  0.
0.0175748816408 -0.0540538017337  0.
0.0171179416109 -0.0572536803658  0.
0.0166408462147 -0.0601959252828  0.
0.0161881931083 -0.0628678759076  0.
0.0158170939848 -0.0652732385617  0.
0.0298672623913 -0.0432032796338  0.
0.0294932215899 -0.0461093379672  0.
0.0290658566815 -0.0489118349344  0.
0.0285601127325 -0.0516150204244  0.
0.0279672061447 -0.0542060337098  0.
0.0272872960739 -0.0566660779918  0.
0.0265302041947 -0.0589732623692  0.
0.0257181369363 -0.0611046304397  0.
0.0248884302687 -0.0630392675708  0.
0.0240957145822 -0.0647627389798  0.
0.0234124419055 -0.066273565798  0.
</DataArray>
<DataArray type="Float64" Name="stresses" NumberOfComponents="4" format="ascii" >
-99164.8725613 -56543.0366949 -76736.5089554 21059.5155316  
-54915.0075792 -55275.2491614 -53993.2258029 2960.38272734  
44314.6612638 55400.2214555 49308.0455674 28992.3424078  
17042.0862342 18384.1551568 17358.8582816 21730.5651358  
21867.407863 17787.8721627 19431.0872126 15085.56653  
19023.9521807 12186.0348858 15292.8936626 10608.750587  
11267.1006638 3233.59532027 7105.34103218 7448.4026263  
624.609560934 -7474.31077691 -3356.35359583 5155.31951266  
-10466.4589964 -17553.5721514 -13729.8152624 3496.45765246  
-19228.5448456 -24022.1010481 -21192.8164879 2460.27575742  
-30222.7454052 -31447.2889007 -30218.3168099 2713.9378657  
-24677.1185082 -45101.5194717 -34191.5326101 -103.953018781  
-42324.9651787 -45026.4379749 -42802.1875453 2424.29676051  
-44928.7903493 -51799.8646804 -47397.0409645 746.139526555  
-47482.096998 -56391.8579396 -50898.2379194 -567.96145724  
-46030.2075176 -56131.4664694 -50059.2202537 -1389.01564464  
-42100.3359347 -53025.624951 -46611.720834 -1766.76544189  
-37174.7117538 -48816.1204311 -42135.5077706 -1762.52224373  
-32544.9705881 -44954.2750371 -37974.6303563 -1397.339787  
-29116.5528144 -42546.2499594 -35114.7733591 -606.989311726  
-23558.4887619 -38938.015955 -30623.2873113 868.925641716  
-53654.488622 -108273.964296 -79344.9419298 516.913396733  
12337.9230777 -12257.2635757 39.5231559735 -1356.23215025  
5989.99562753 -23456.0424422 -8558.36293918 -2592.29666424  
1807.22248909 -32166.4761532 -14876.0342954 -3244.07637738  
-3537.5920571 -41788.2820304 -22209.6783029 -3388.30439398  
-9863.31288824 -52029.4222576 -30327.4402214 -3161.75782988  
-17075.2384782 -62719.2609405 -39099.3047152 -2664.83833401  
-25140.325844 -73785.9613057 -48473.8807034 -1982.49230257  
-34008.1854896 -85162.8882901 -58393.8261521 -1185.1502631  
-43483.8590834 -96637.1355761 -68659.2873831 -331.610361304  
-68879.7709157 -122830.466022 -93938.0160993 1139.82017671  
-69906.5778378 -121867.529594 -93969.3126414 2583.55660536  
-71834.3203122 -119664.841147 -93834.5891149 4321.35499945  
-75150.3444862 -116536.624126 -93926.6146199 6510.30286771  
-80682.5144445 -113324.220376 -95063.3000621 9133.2133885  
-89272.7622364 -111033.623332 -98150.1289286 12043.0397853  
-103677.691408 -112552.305797 -105952.698631 15069.8259389  
-127119.770149 -120896.786644 -121528.112829 18091.5535989  
-168557.443265 -142537.721073 -152451.005629 22406.6028297  
12256.8611403 19741.5964635 15675.5562297 24497.1392042  
-32241.930916 -36757.8228283 -33809.8793347 19166.8039818  
-43430.2144722 -59441.3815653 -50407.0820584 15336.4121048  
-47550.7838304 -73739.5321499 -59432.2548304 11973.7335812  
-49361.0957832 -84184.1788638 -65437.1845771 8854.38891557  
-50907.8078728 -92658.9263336 -70347.6997611 6058.02298246  
-52635.0717428 -99518.7983845 -74555.3963624 3706.95761271  
-54398.5194568 -104677.094829 -77947.0509999 1840.86190989  
-56009.8914316 -108137.193772 -80432.0717499 358.414724222  
-17202.2880157 -21539.9804104 -18983.7115288 18362.8097546  
-29187.450261 -42373.6808758 -35064.954257 15397.6390623  
-36351.8921453 -58053.7834511 -46258.7810422 12671.9201784  
-38869.9603535 -68476.8310444 -52599.927785 9946.20609809  
-40175.2421753 -76504.1077527 -57172.8814648 7255.500004  
-41416.9122569 -83102.8070287 -61014.6624499 4759.68146541  
-42943.3150444 -88582.7618354 -64447.7776711 2623.66223863  
-44583.9955216 -92888.6786676 -67361.6103527 921.400947436  
-46132.7780996 -96034.2252581 -69661.8316452 -408.925768824  
-19582.0932983 -29552.8491764 -24076.1218126 13657.2503332  
-25283.9813154 -43253.8622458 -33583.543345 12191.831074  
-27848.6547578 -52815.635545 -39525.5022483 10199.7167176  
-29897.6152845 -61170.584713 -44623.4179988 7928.21510503  
-31150.040555 -67707.299982 -48440.0968632 5589.71865916  
-32432.2114081 -73127.8595888 -51724.4347885 3393.90929779  
-33916.0512775 -77637.9939271 -54661.4821503 1514.95701758  
-35462.8103222 -81266.3742591 -57197.3004448 34.169651625  
-36768.4749338 -83963.9694675 -59158.8977566 -1097.06004096  
-16939.5156976 -29409.8236578 -22711.1762842 10036.7701205  
-20089.8310873 -40124.1168611 -29504.8344947 9225.12533459  
-21118.7679311 -47292.0700876 -33521.3106292 7753.99595126  
-22147.8491112 -53524.2293493 -37079.3184456 5883.82798532  
-23169.2031058 -58745.8295595 -40138.366006 3896.63708999  
-24305.7422199 -63085.6146591 -42821.7648707 2024.33378222  
-25630.7873886 -66727.8871101 -45255.7505044 440.688168711  
-26965.4655197 -69711.9920283 -47371.9541985 -777.325826915  
-27972.1657795 -71984.5053602 -48978.7688585 -1673.20269318  
-12701.2118502 -25719.5519169 -18826.1742459 7241.88802058  
-14561.7440171 -34689.7571807 -24133.2355869 6676.63070119  
-14995.7525264 -40626.8572214 -27255.0787764 5504.15700535  
-15504.9499237 -45544.105134 -29914.0369783 3958.04237699  
-16132.0839358 -49568.3454102 -32193.2103795 2300.21019711  
-16974.8457268 -52917.1376867 -34247.0718726 756.935173005  
-17988.7957047 -55736.050125 -36125.1744565 -510.69502687  
-19008.5510957 -58125.4244001 -37795.6479929 -1438.04027438  
-19724.1406134 -60076.8265057 -39102.4738883 -2071.71754764  
-7874.22995537 -20022.8646813 -13669.5763719 5108.94316381  
-9327.69943244 -28008.1186859 -18294.550878 4590.96521636  
-9571.69725092 -33196.4954312 -20956.4144142 3588.56088012  
-9692.38207064 -37110.7897209 -22933.5541778 2288.41304865  
-9904.71377727 -40119.3955681 -24511.8135792 923.932093907  
-10319.1959261 -42530.7204237 -25896.4590114 -300.512313567  
-10875.2349456 -44543.7990053 -27155.3266359 -1242.67377751  
-11471.6264052 -46371.5831319 -28343.1726732 -1857.0286645  
-11919.2109941 -48137.0894172 -29427.5872015 -2206.54390226  
-3350.40023138 -13439.1856846 -8226.89709882 3567.41484847  
-5051.72608514 -21018.043979 -12774.1873314 3028.85186586  
-5004.20581178 -25409.3390031 -14902.6369593 2112.8562511  
-4549.73870168 -28244.8670266 -16069.3568069 990.838580368  
-4288.5394784 -30309.9599748 -16953.2647321 -123.399152366  
-4231.27664142 -31869.2008199 -17689.233956 -1048.89106452  
-4188.23690681 -33049.4507141 -18246.4669342 -1664.14495136  
-4131.78898007 -34197.746415 -18781.4723436 -1940.49890755  
-4298.09269103 -35897.708345 -19695.9425077 -1974.2919664  
-1344.43701737 -8317.05100789 -4734.12913237 2700.22753684  
-2640.44033188 -14914.3488061 -8601.84667761 2080.78539493  
-957.61971692 -17208.9164362 -8901.60271505 1156.54226003  
290.125695144 -18782.2781538 -9061.15470474 142.157870561  
1001.55368632 -19982.8990984 -9300.85925191 -761.338643438  
1401.4060797 -20890.450436 -9549.63173461 -1409.8346531  
1917.22896423 -21417.65049 -9555.20654762 -1706.17844288  
3148.69852503 -21398.4248579 -8942.36590309 -1622.45712346  
4236.83626971 -22189.3561483 -8796.73474053 -1266.03247469  
-7454.95176704 -10743.4063272 -8917.19546617 2771.43428849  
-134.384422715 -8270.90920647 -4118.5938783 1788.81577184  
3983.17375563 -7531.60271888 -1738.73019199 689.44839571  
5755.43943963 -7982.43905919 -1091.22981358 -267.469363732  
6383.52935532 -8832.20885653 -1199.85295559 -966.972749342  
6516.38872431 -9746.83224444 -1582.91732486 -1346.59346461  
6802.35255669 -10367.8471189 -1747.09233548 -1356.49809052  
8454.51450041 -9864.41294582 -690.850238253 -944.621700697  
14026.5887228 -6425.35488958 3724.60457826 -124.238983783  
-72741.0367402 -128519.103642 -98617.4687874 1780.10982305  
-60168.81936 -115564.942303 -86109.543215 1278.85815772  
24191.2310312 67261.2934312 44811.7369866 14310.9054217  
823.622191201 49165.2835034 24504.5845864 15449.1876883  
-41176.7611961 -10418.4931267 -25281.6746181 16137.8445198  
-51476.7052563 -35458.9242747 -42598.4584702 15791.566346  
-62870.5484708 -63217.5005297 -61783.1440102 14725.2712432  
-68010.551379 -84840.7943751 -74897.1594195 13100.5140162  
-71449.959508 -102882.484449 -85422.8975389 11005.6367461  
-74904.1526915 -117981.993193 -94514.2114833 8644.27321303  
-78839.8353725 -130209.801034 -102434.321839 6290.00881984  
-85956.2359542 -142116.219466 -111755.503156 4248.41070922  
-94641.3960441 -151716.040248 -120715.143783 2731.65799862  
-80088.6104459 -135754.176958 -105762.965828 1957.07760091  
-81003.2095252 -135083.034051 -105882.259352 3004.07580498  
-81007.9680597 -130642.499063 -103708.72889 4161.71393532  
-81539.7118619 -123827.124953 -100629.750039 5761.43185846  
-82590.1884651 -114766.278217 -96704.6686742 7857.14515949  
-82928.0397168 -102531.405486 -90875.1281495 10406.7911386  
-82309.6521475 -87457.556016 -83185.9320001 13240.2038225  
-83531.2394813 -72976.6003085 -76688.841497 15965.8228671  
-114141.071457 -85908.8321655 -98023.6695061 17844.6246855  
-224975.09428 -211814.039065 -214026.675339 10074.6450476  
-103413.38571 -70793.4945009 -85361.3713032 5187.14450685  
-236124.997852 -202614.671724 -214982.438092 5699.86254733  
-45951.7727255 -4934.42120445 -24934.2350257 3760.23643263  
-47391.6547621 6374.74679752 -20174.5006287 6306.53289759  
-220262.47223 -179316.865452 -195793.875464 8623.03947851  
-111195.031638 -64234.0276982 -85960.239075 10784.3399206  
-138686.661344 -93419.0823743 -113731.814422 6035.22447075  
-95473.4465717 -41540.8354046 -67150.9095919 8799.11590349  
-456858.369551 -492460.967139 -465166.474978 7279.47078511  
-512531.058096 -531146.094415 -511401.80473 10877.4894037  
-487192.911924 -505259.407047 -486301.636296 12739.2099053  
-463897.171035 -481285.875897 -463139.692997 14316.2492387  
-437961.407179 -454591.873429 -437351.107498 15634.2648138  
-407329.614147 -423083.941155 -406902.642098 16643.7620913  
-371295.17596 -386040.076796 -371094.27385 17274.107549  
-329274.532772 -342867.074413 -329349.387521 17445.9166779  
-278866.280224 -291127.565289 -279296.984301 17057.006996  
-213388.509229 -224285.280564 -214460.156998 15915.7387287  
-132251.709053 -188028.02976 -156937.072018 2772.92873774  
-237306.313007 -285450.0666 -256150.626007 3989.61827549  
-219496.684388 -260700.822661 -235296.778454 6480.47464886  
-132547.607534 -186696.399618 -156429.563504 3690.97314825  
-232261.464644 -267001.975292 -244639.085569 8964.65240007  
-123350.981688 -172971.887953 -145198.206124 5723.80114983  
-236432.034296 -267516.640689 -246934.850743 11460.5300829  
-125629.1841 -169714.776565 -144718.540726 8470.11180709  
-239041.187632 -266063.858518 -247501.472614 13662.3080997  
-130172.904932 -166970.857665 -145600.443673 11315.8427407  
-242049.10187 -264026.59835 -247977.093108 15314.8529583  
-137233.407649 -164225.325686 -147714.779334 13610.9555044  
-246273.267093 -262053.684101 -249080.206085 16142.2214058  
-145696.335428 -160480.045253 -150026.426533 14832.2730704  
-252938.142689 -261194.014902 -251924.75722 15951.1968872  
-153713.010948 -154392.824675 -150971.859455 14710.8781096  
-265559.365207 -264197.360393 -259580.795544 14561.5936516  
-159837.724333 -144445.410324 -149098.735982 13426.0919583  
-294342.671695 -275490.705226 -279218.354691 11654.2359125  
-144749.183392 -112918.781372 -126257.302734 11607.4345513  
6432.29228105 -23056.750818 -8145.9846831 2449.85171641  
-337536.126964 -387817.505082 -355423.279703 6094.82118372  
-306844.484169 -355623.329364 -324609.228631 5603.43307087  
-275071.367479 -322228.815092 -292677.08946 5109.92657687  
-242871.646071 -288289.435488 -260268.929964 4633.64097067  
-210358.148897 -253906.278448 -227489.569399 4180.0703725  
-177528.140541 -219072.327065 -194334.229127 3756.03545285  
-144376.766454 -183794.034866 -160803.692647 3372.1017471  
-110926.082248 -148125.679809 -126935.363408 3041.41069191  
-77226.3232331 -112174.200543 -92806.2566504 2776.95561293  
-43336.7085851 -76079.9350835 -58514.1553976 2587.79505666  
-8305.05819506 -38946.5911542 -23153.3081812 2480.9161834  
6312.86200775 -22723.7472992 -8041.33379281 192.612792158  
-4813.37012732 -30878.5157249 -17489.0240676 -983.011489515  
-229820.99684 -278733.438156 -249191.673148 3846.72210416  
-205527.993308 -253676.838567 -225010.367619 3317.57440784  
-182019.186479 -228969.881122 -201384.643125 2783.25293126  
-158808.900803 -204400.923718 -177972.814015 2226.82653315  
-135783.352703 -179836.700586 -154653.826111 1649.56618844  
-112920.972836 -155189.737963 -131374.248292 1074.42762585  
-90226.7569209 -130418.449043 -108116.150922 544.914402461  
-67717.5423982 -105540.425829 -84896.4044312 122.811681584  
-45416.5293946 -80650.2373211 -61772.7156907 -118.81604137  
-23326.2392239 -55911.1703418 -38826.3306872 -111.142169286  
-1893.19281597 -32091.1496445 -16652.3278056 59.3947551271  
-131715.307715 -185611.221625 -155489.999377 2347.88879629  
-117031.911992 -168761.405324 -140038.725485 1568.77394335  
-103106.999802 -153374.278605 -125675.82642 761.170778875  
-89318.7085512 -138039.759949 -111405.649565 -97.95868004  
-75529.2975589 -122400.838343 -96985.7665917 -971.875461958  
-61766.6891268 -106393.544798 -82398.5146231 -1805.65764132  
-48090.3281692 -90032.3571242 -67680.1157938 -2525.71260999  
-34555.1596145 -73378.6678875 -52887.575476 -3038.43198268  
-21203.6047421 -56556.9969697 -38102.6948388 -3233.44301364  
-8173.7508359 -39892.3417456 -23552.3853649 -2993.55745642  
2733.71642754 -25480.5976825 -11145.9718149 -1947.7084216  
</DataArray>
<DataArray type="Float64" Name="equivalent_strain" NumberOfComponents="1" format="ascii" >
0.000308705342555  
0.0  
0.000393008990954  
0.0  
0.0  
0.0  
0.0  
0.0  
0.0  
0.0  
0.0  
0.0  
0.0  
0.0  
0.0  
0.0  
0.0  
0.0  
0.0  
0.0  
0.0  
0.0  
0.0  
0.0  
0.0  
0.0  
0.0  
0.0  
0.0  
0.0  
0.0  
0.0  
0.0  
0.0  
0.0  
0.0  
0.0  
0.0  
0.0  
2.95724511235e-05  
6.63361849038e-05  
0.0  
0.0  
0.0  
0.0  
0.0  
0.0  
0.0  
0.0  
0.0  
0.0  
0.0  
0.0  
0.0  
0.0  
0.0  
0.0  
0.0  
0.0  
0.0  
0.0  
0.0  
0.0  
0.0  
0.0  
0.0  
0.0  
0.0  
0.0  
0.0  
0.0  
0.0  
0.0  
0.0  
0.0  
0.0  
0.0  
0.0  
0.0  
0.0  
0.0  
0.0  
0.0  
0.0  
0.0  
0.0  
0.0  
0.0  
0.0  
0.0  
0.0  
0.0  
0.0  
0.0  
0.0  
0.0  
0.0  
0.0  
0.0  
0.0  
0.0  
0.0  
0.0  
0.0  
0.0  
0.0  
0.0  
0.0  
0.0  
0.0  
0.0  
0.0  
0.0  
0.0  
0.0  
0.0  
0.0  
0.0  
0.0  
0.0  
0.0  
0.0  
0.0  
0.0  
3.89433767981e-05  
0.0  
0.0  
0.0  
0.0  
0.0  
0.0  
0.0  
0.0  
0.0  
0.0  
0.0  
0.0  
0.0  
0.0  
0.0  
0.0  
0.0  
0.0  
0.0  
0.0  
0.0  
0.0  
9.72050207793e-05  
0.0  
0.0  
0.0  
3.6746772237e-05  
0.0  
0.0  
0.0  
0.0  
0.0  
0.0  
0.0  
0.0  
0.0  
0.0  
0.0  
0.0  
0.0  
0.0  
0.0  
0.0  
0.0  
0.0  
0.0  
0.0  
0.0  
0.0  
0.0  
0.0  
0.0  
0.0  
0.0  
0.0  
0.0  
0.0  
0.0  
0.0  
0.0  
0.0  
0.0  
0.0  
0.0  
0.0  
0.0  
0.0  
0.0  
0.0  
0.0  
0.0  
0.0  
0.0  
0.0  
0.0  
0.0  
0.0  
0.0  
0.0  
0.0  
0.0  
0.0  
0.0  
0.0  
0.0  
0.0  
0.0  
0.0  
0.0  
0.0  
0.0  
0.0  
0.0  
</DataArray>
</PointData>
<CellData>
</CellData>
<Points>
<DataArray type="Float64" Name="Points" NumberOfComponents="3" format="ascii">
45.0 30.0 0.0
35.0 40.0 0.0
44.0 31.0 0.0
43.0 32.0 0.0
42.0 33.0 0.0
41.0 34.0 0.0
40.0 35.0 0.0
39.0 36.0 0.0
38.0 37.0 0.0
37.0 38.0 0.0
36.0 39.0 0.0
25.0 40.0 0.0
34.0 40.0 0.0
33.0 40.0 0.0
32.0 40.0 0.0
31.0 40.0 0.0
30.0 40.0 0.0
29.0 40.0 0.0
28.0 40.0 0.0
27.0 40.0 0.0
26.0 40.0 0.0
25.0 30.0 0.0
25.0 39.0 0.0
25.0 38.0 0.0
25.0 37.0 0.0
25.0 36.0 0.0
25.0 35.0 0.0
25.0 34.0 0.0
25.0 33.0 0.0
25.0 32.0 0.0
25.0 31.0 0.0
27.0 30.0 0.0
29.0 30.0 0.0
31.0 30.0 0.0
33.0 30.0 0.0
35.0 30.0 0.0
37.0 30.0 0.0
39.0 30.0 0.0
41.0 30.0 0.0
43.0 30.0 0.0
42.1 31.0 0.0
40.2 31.0 0.0
38.3 31.0 0.0
36.4 31.0 0.0
34.5 31.0 0.0
32.6 31.0 0.0
30.7 31.0 0.0
28.8 31.0 0.0
26.9 31.0 0.0
41.2 32.0 0.0
39.4 32.0 0.0
37.6 32.0 0.0
35.8 32.0 0.0
34.0 32.0 0.0
32.2 32.0 0.0
30.4 32.0 0.0
28.6 32.0 0.0
26.8 32.0 0.0
40.3 33.0 0.0
38.6 33.0 0.0
36.9 33.0 0.0
35.2 33.0 0.0
33.5 33.0 0.0
31.8 33.0 0.0
30.1 33.0 0.0
28.4 33.0 0.0
26.7 33.0 0.0
39.4 34.0 0.0
37.8 34.0 0.0
36.2 34.0 0.0
34.6 34.0 0.0
33.0 34.0 0.0
31.4 34.0 0.0
29.8 34.0 0.0
28.2 34.0 0.0
26.6 34.0 0.0
38.5 35.0 0.0
37.0 35.0 0.0
35.5 35.0 0.0
34.0 35.0 0.0
32.5 35.0 0.0
31.0 35.0 0.0
29.5 35.0 0.0
28.0 35.0 0.0
26.5 35.0 0.0
37.6 36.0 0.0
36.2 36.0 0.0
34.8 36.0 0.0
33.4 36.0 0.0
32.0 36.0 0.0
30.6 36.0 0.0
29.2 36.0 0.0
27.8 36.0 0.0
26.4 36.0 0.0
36.7 37.0 0.0
35.4 37.0 0.0
34.1 37.0 0.0
32.8 37.0 0.0
31.5 37.0 0.0
30.2 37.0 0.0
28.9 37.0 0.0
27.6 37.0 0.0
26.3 37.0 0.0
35.8 38.0 0.0
34.6 38.0 0.0
33.4 38.0 0.0
32.2 38.0 0.0
31.0 38.0 0.0
29.8 38.0 0.0
28.6 38.0 0.0
27.4 38.0 0.0
26.2 38.0 0.0
34.9 39.0 0.0
33.8 39.0 0.0
32.7 39.0 0.0
31.6 39.0 0.0
30.5 39.0 0.0
29.4 39.0 0.0
28.3 39.0 0.0
27.2 39.0 0.0
26.1 39.0 0.0
25.0 28.0 0.0
25.0 29.0 0.0
45.0 28.0 0.0
45.0 29.0 0.0
43.0 28.0 0.0
41.0 28.0 0.0
39.0 28.0 0.0
37.0 28.0 0.0
35.0 28.0 0.0
33.0 28.0 0.0
31.0 28.0 0.0
29.0 28.0 0.0
27.0 28.0 0.0
27.0 29.0 0.0
29.0 29.0 0.0
31.0 29.0 0.0
33.0 29.0 0.0
35.0 29.0 0.0
37.0 29.0 0.0
39.0 29.0 0.0
41.0 29.0 0.0
43.0 29.0 0.0
75.0 0.0 0.0
75.0 30.0 0.0
75.0 15.0 0.0
57.8571428571 30.0 0.0
49.2857142857 30.0 0.0
57.8571428571 16.0 0.0
49.2857142857 24.0 0.0
57.8571428571 23.0 0.0
49.2857142857 27.0 0.0
0.0 0.0 0.0
7.5 0.0 0.0
15.0 0.0 0.0
22.5 0.0 0.0
30.0 0.0 0.0
37.5 0.0 0.0
45.0 0.0 0.0
52.5 0.0 0.0
60.0 0.0 0.0
67.5 0.0 0.0
21.4285714286 24.0 0.0
14.2857142857 16.0 0.0
18.6428571429 16.0 0.0
24.2142857143 24.0 0.0
23.0 16.0 0.0
27.0 24.0 0.0
27.3571428571 16.0 0.0
29.7857142857 24.0 0.0
31.7142857143 16.0 0.0
32.5714285714 24.0 0.0
36.0714285714 16.0 0.0
35.3571428571 24.0 0.0
40.4285714286 16.0 0.0
38.1428571429 24.0 0.0
44.7857142857 16.0 0.0
40.9285714286 24.0 0.0
49.1428571429 16.0 0.0
43.7142857143 24.0 0.0
53.5 16.0 0.0
46.5 24.0 0.0
0.0 40.0 0.0
0.0 3.33333333333 0.0
0.0 6.66666666667 0.0
0.0 10.0 0.0
0.0 13.3333333333 0.0
0.0 16.6666666667 0.0
0.0 20.0 0.0
0.0 23.3333333333 0.0
0.0 26.6666666667 0.0
0.0 30.0 0.0
0.0 33.3333333333 0.0
0.0 36.6666666667 0.0
14.2857142857 40.0 0.0
21.4285714286 40.0 0.0
14.2857142857 18.0 0.0
14.2857142857 20.0 0.0
14.2857142857 22.0 0.0
14.2857142857 24.0 0.0
14.2857142857 26.0 0.0
14.2857142857 28.0 0.0
14.2857142857 30.0 0.0
14.2857142857 32.0 0.0
14.2857142857 34.0 0.0
14.2857142857 36.0 0.0
14.2857142857 38.0 0.0
21.4285714286 25.3333333333 0.0
21.4285714286 26.6666666667 0.0
21.4285714286 28.0 0.0
21.4285714286 29.3333333333 0.0
21.4285714286 30.6666666667 0.0
21.4285714286 32.0 0.0
21.4285714286 33.3333333333 0.0
21.4285714286 34.6666666667 0.0
21.4285714286 36.0 0.0
21.4285714286 37.3333333333 0.0
21.4285714286 38.6666666667 0.0
</DataArray>
</Points>
<Cells>
<DataArray type="Int64" Name="connectivity" format="ascii">
0 2 40 39 
2 3 49 40 
3 4 58 49 
4 5 67 58 
5 6 76 67 
6 7 85 76 
7 8 94 85 
8 9 103 94 
9 10 112 103 
10 1 12 112 
39 40 41 38 
40 49 50 41 
49 58 59 50 
58 67 68 59 
67 76 77 68 
76 85 86 77 
85 94 95 86 
94 103 104 95 
103 112 113 104 
112 12 13 113 
38 41 42 37 
41 50 51 42 
50 59 60 51 
59 68 69 60 
68 77 78 69 
77 86 87 78 
86 95 96 87 
95 104 105 96 
104 113 114 105 
113 13 14 114 
37 42 43 36 
42 51 52 43 
51 60 61 52 
60 69 70 61 
69 78 79 70 
78 87 88 79 
87 96 97 88 
96 105 106 97 
105 114 115 106 
114 14 15 115 
36 43 44 35 
43 52 53 44 
52 61 62 53 
61 70 71 62 
70 79 80 71 
79 88 89 80 
88 97 98 89 
97 106 107 98 
106 115 116 107 
115 15 16 116 
35 44 45 34 
44 53 54 45 
53 62 63 54 
62 71 72 63 
71 80 81 72 
80 89 90 81 
89 98 99 90 
98 107 108 99 
107 116 117 108 
116 16 17 117 
34 45 46 33 
45 54 55 46 
54 63 64 55 
63 72 73 64 
72 81 82 73 
81 90 91 82 
90 99 100 91 
99 108 109 100 
108 117 118 109 
117 17 18 118 
33 46 47 32 
46 55 56 47 
55 64 65 56 
64 73 74 65 
73 82 83 74 
82 91 92 83 
91 100 101 92 
100 109 110 101 
109 118 119 110 
118 18 19 119 
32 47 48 31 
47 56 57 48 
56 65 66 57 
65 74 75 66 
74 83 84 75 
83 92 93 84 
92 101 102 93 
101 110 111 102 
110 119 120 111 
119 19 20 120 
31 48 30 21 
48 57 29 30 
57 66 28 29 
66 75 27 28 
75 84 26 27 
84 93 25 26 
93 102 24 25 
102 111 23 24 
111 120 22 23 
120 20 11 22 
121 133 134 122 
133 132 135 134 
132 131 136 135 
131 130 137 136 
130 129 138 137 
129 128 139 138 
128 127 140 139 
127 126 141 140 
126 125 142 141 
125 123 124 142 
122 134 31 21 
134 135 32 31 
135 136 33 32 
136 137 34 33 
137 138 35 34 
138 139 36 35 
139 140 37 36 
140 141 38 37 
141 142 39 38 
142 124 0 39 
143 145 150 148 
145 144 146 150 
148 150 151 149 
150 146 147 151 
149 151 124 123 
151 147 0 124 
152 153 164 163 
153 154 166 164 
154 155 168 166 
155 156 170 168 
156 157 172 170 
157 158 174 172 
158 159 176 174 
159 160 178 176 
160 161 180 178 
161 143 148 180 
163 164 165 162 
164 166 167 165 
166 168 169 167 
168 170 171 169 
170 172 173 171 
172 174 175 173 
174 176 177 175 
176 178 179 177 
178 180 181 179 
180 148 149 181 
162 165 133 121 
165 167 132 133 
167 169 131 132 
169 171 130 131 
171 173 129 130 
173 175 128 129 
175 177 127 128 
177 179 126 127 
179 181 125 126 
181 149 123 125 
152 163 196 183 
163 162 207 196 
162 121 122 207 
183 196 197 184 
196 207 208 197 
207 122 21 208 
184 197 198 185 
197 208 209 198 
208 21 30 209 
185 198 199 186 
198 209 210 199 
209 30 29 210 
186 199 200 187 
199 210 211 200 
210 29 28 211 
187 200 201 188 
200 211 212 201 
211 28 27 212 
188 201 202 189 
201 212 213 202 
212 27 26 213 
189 202 203 190 
202 213 214 203 
213 26 25 214 
190 203 204 191 
203 214 215 204 
214 25 24 215 
191 204 205 192 
204 215 216 205 
215 24 23 216 
192 205 206 193 
205 216 217 206 
216 23 22 217 
193 206 194 182 
206 217 195 194 
217 22 11 195 
</DataArray>
<DataArray type="Int64" Name="offsets" format="ascii">
4
8
12
16
20
24
28
32
36
40
44
48
52
56
60
64
68
72
76
80
84
88
92
96
100
104
108
112
116
120
124
128
132
136
140
144
148
152
156
160
164
168
172
176
180
184
188
192
196
200
204
208
212
216
220
224
228
232
236
240
244
248
252
256
260
264
268
272
276
280
284
288
292
296
300
304
308
312
316
320
324
328
332
336
340
344
348
352
356
360
364
368
372
376
380
384
388
392
396
400
404
408
412
416
420
424
428
432
436
440
444
448
452
456
460
464
468
472
476
480
484
488
492
496
500
504
508
512
516
520
524
528
532
536
540
544
548
552
556
560
564
568
572
576
580
584
588
592
596
600
604
608
612
616
620
624
628
632
636
640
644
648
652
656
660
664
668
672
676
680
684
688
692
696
700
704
708
712
716
720
724
728
732
736
740
744
748
752
756
760
764
768
</DataArray>
<DataArray type="UInt8" Name="types" format="ascii" RangeMin="9" RangeMax="9">
9
9
9
9
9
9
9
9
9
9
9
9
9
9
9
9
9
9
9
9
9
9
9
9
9
9
9
9
9
9
9
9
9
9
9
9
9
9
9
9
9
9
9
9
9
9
9
9
9
9
9
9
9
9
9
9
9
9
9
9
9
9
9
9
9
9
9
9
9
9
9
9
9
9
9
9
9
9
9
9
9
9
9
9
9
9
9
9
9
9
9
9
9
9
9
9
9
9
9
9
9
9
9
9
9
9
9
9
9
9
9
9
9
9
9
9
9
9
9
9
9
9
9
9
9
9
9
9
9
9
9
9
9
9
9
9
9
9
9
9
9
9
9
9
9
9
9
9
9
9
9
9
9
9
9
9
9
9
9
9
9
9
9
9
9
9
9
9
9
9
9
9
9
9
9
9
9
9
9
9
9
9
9
9
9
9
9
9
9
9
9
9
</DataArray>
</Cells>
</Piece>
</UnstructuredGrid>
</VTKFile>
