<?xml version="1.0"?>
<VTKFile type="UnstructuredGrid" version="0.1" byte_order="LittleEndian" compressor="vtkZLibDataCompressor">
<UnstructuredGrid>
<Piece NumberOfPoints="218" NumberOfCells="192">
<PointData>
<DataArray type="Float64" Name="displacement" NumberOfComponents="3" format="ascii" >
0.103917435155 -0.00827036080769  0.
0.0578771966582 -0.082859693007  0.
0.112054353128 -0.013109142636  0.
0.112306736296 -0.0195783114685  0.
0.108954322922 -0.0266984884341  0.
0.103711284669 -0.0342501513251  0.
0.0970658916892 -0.0421707725311  0.
0.0894378426347 -0.0503758256224  0.
0.0812400944808 -0.0587341736079  0.
0.07290193172 -0.0670628685094  0.
0.0648875298707 -0.0751431727046  0.
0.0511907746524 -0.130446870173  0.
0.0578731699641 -0.0903429590911  0.
0.0574733749882 -0.0970251637727  0.
0.0569039371389 -0.103047795015  0.
0.0562519376564 -0.108489634375  0.
0.0555468234147 -0.113372600375  0.
0.0547975788097 -0.117706417498  0.
0.0540081108007 -0.121516238378  0.
0.0531758179525 -0.124845366191  0.
0.0522798342593 -0.127766614699  0.
0.073148120826 -0.0955351734422  0.
0.0529263725452 -0.128846850295  0.
0.054913513477 -0.126731389525  0.
0.0571285614258 -0.124149034925  0.
0.0594785497287 -0.121118385207  0.
0.061906662681 -0.117663199767  0.
0.0643481133069 -0.113817706148  0.
0.0667394570751 -0.109626680707  0.
0.069028623353 -0.105141855106  0.
0.0711750565483 -0.100421904212  0.
0.0820305871629 -0.0913923511078  0.
0.090556020088 -0.0865067198282  0.
0.0983183720355 -0.0806306425656  0.
0.104901648948 -0.0735059173187  0.
0.109970322119 -0.0650218428248  0.
0.113325371866 -0.0553865746584  0.
0.114803927544 -0.0449122417753  0.
0.114158038809 -0.0338926112424  0.
0.110893092176 -0.0221073264805  0.
0.114183587808 -0.0264419302636  0.
0.114680707534 -0.0385061019693  0.
0.113443482263 -0.0497553356817  0.
0.110789037364 -0.0603619824666  0.
0.106746321878 -0.0700373161468  0.
0.101414566922 -0.078543821965  0.
0.0949130126003 -0.0857008038849  0.
0.0874945532596 -0.0915884646009  0.
0.079476297392 -0.0964208876548  0.
0.112684513167 -0.0323550237808  0.
0.111827630661 -0.0442285498706  0.
0.109816354872 -0.0553847948574  0.
0.106707967027 -0.0658660369516  0.
0.102467542031 -0.0753864906402  0.
0.0971843544882 -0.0837467595791  0.
0.0909746673439 -0.0907959647875  0.
0.0840422685825 -0.0965895774944  0.
0.0766419851787 -0.101304658875  0.
0.108672756239 -0.0390343791679  0.
0.107247624986 -0.0505845160645  0.
0.104840013348 -0.0614496761098  0.
0.101584805162 -0.0716530484357  0.
0.0974045413723 -0.0808887168077  0.
0.0923790815652 -0.0889842037555  0.
0.0866161096861 -0.0958194484779  0.
0.080283683073 -0.10143609896  0.
0.0735877508101 -0.105979719263  0.
0.103082656519 -0.0461729950399  0.
0.101386005493 -0.0573272373855  0.
0.0988445762818 -0.0677792055749  0.
0.0956428000618 -0.0775669185558  0.
0.0917167300806 -0.0864070747604  0.
0.0871161421654 -0.0941405994566  0.
0.081932966806 -0.100678644686  0.
0.0762991567378 -0.106053923729  0.
0.0703789112085 -0.110383631531  0.
0.0962842157675 -0.0536321079324  0.
0.0945353115566 -0.0642959567775  0.
0.0920622500572 -0.0742226136286  0.
0.0890802658914 -0.0834678558702  0.
0.0855641541811 -0.0918108979655  0.
0.0815266281076 -0.0991018095166  0.
0.0770333920915 -0.105278571547  0.
0.0721796544908 -0.110366254491  0.
0.0670893348292 -0.114454431962  0.
0.0886485918172 -0.061269444684  0.
0.0870200711878 -0.0713322192544  0.
0.0847849530713 -0.0806301271581  0.
0.0821507106665 -0.0892227741777  0.
0.079149276572 -0.0969738762364  0.
0.075771626647 -0.10375635352  0.
0.0720467162135 -0.109524259645  0.
0.0680310107539 -0.11429518967  0.
0.0638053208676 -0.11813168216  0.
0.0805667503326 -0.0689223395388  0.
0.0792002041893 -0.0782707254084  0.
0.0773392009043 -0.086848547358  0.
0.0751577048134 -0.094710018959  0.
0.0727194441487 -0.101789349549  0.
0.0700341545079 -0.10800520301  0.
0.0671101439413 -0.11332634336  0.
0.0639605232836 -0.117764003328  0.
0.0606139991969 -0.12135714644  0.
0.0724527381189 -0.0764102576757  0.
0.0714493628703 -0.0849468750762  0.
0.0700457987546 -0.0927310777478  0.
0.0683881434518 -0.0998148739933  0.
0.0665439780817 -0.106176941834  0.
0.0645384143933 -0.111779296245  0.
0.0623824487711 -0.116615460319  0.
0.0600726534966 -0.120705758605  0.
0.0575873404444 -0.124075593331  0.
0.0647429503994 -0.0835687488435  0.
0.0641170232208 -0.091225027009  0.
0.0631741493778 -0.098157289114  0.
0.0620479030422 -0.104433235966  0.
0.060796748026 -0.110059941958  0.
0.0594452928031 -0.115030101047  0.
0.0580057696525 -0.119357827484  0.
0.0564754675342 -0.123077305374  0.
0.0548205090359 -0.12623491488  0.
0.0766127626939 -0.0855058763483  0.
0.0749557033837 -0.0905346103815  0.
0.105534678942 -0.0164263384301  0.
0.104565143832 -0.0127340378104  0.
0.111754154783 -0.0263328813847  0.
0.115576947894 -0.0353762038282  0.
0.117204638847 -0.0440284477342  0.
0.116569220776 -0.0523583921243  0.
0.113669501422 -0.0600013443509  0.
0.108727592352 -0.0666824822725  0.
0.102132718229 -0.0723318233783  0.
0.0942818459844 -0.0771443131075  0.
0.0855895605342 -0.0814322479319  0.
0.0839358606628 -0.0864654677587  0.
0.0925948814609 -0.0818702429913  0.
0.100436579524 -0.0765151309172  0.
0.107017808674 -0.0701168320943  0.
0.111971173037 -0.0625026104045  0.
0.11506801136 -0.0538191709303  0.
0.116188145825 -0.044375376106  0.
0.115131531622 -0.0345666008966  0.
0.11155075615 -0.0242077516102  0.
0.0 0.0  0.
0.0 0.0685032483352  0.
0.0 0.0310969451937  0.
0.0493781450352 0.0417228167247  0.
0.081883584796 0.0163307344525  0.
0.0642497664517 -0.00725286027792  0.
0.0935164946867 -0.0100572348409  0.
0.0570726542899 0.0184221749018  0.
0.0881989551663 0.00272429790272  0.
0.0 0.0  0.
0.0 0.0  0.
0.0 0.0  0.
0.0 0.0  0.
0.0 0.0  0.
0.0 0.0  0.
0.0 0.0  0.
0.0 0.0  0.
0.0 0.0  0.
0.0 0.0  0.
0.0664998325121 -0.0725001650022  0.
0.0435477138399 -0.0459361710472  0.
0.0562294121393 -0.0406771178219  0.
0.0781320817564 -0.0671038636967  0.
0.0647685482512 -0.0387403739849  0.
0.0879485621955 -0.0631804922179  0.
0.0720766822744 -0.036897772289  0.
0.0963348820794 -0.0594016914286  0.
0.0781805680667 -0.0349101852706  0.
0.103323928345 -0.0550450012272  0.
0.0828389512435 -0.0325776619274  0.
0.108502128344 -0.0498595918016  0.
0.085678072957 -0.0298309513393  0.
0.111374406478 -0.043799952708  0.
0.086316830117 -0.0266536502472  0.
0.111575975586 -0.0370247109368  0.
0.0842750859749 -0.0228164202875  0.
0.108979188405 -0.0296421622749  0.
0.0786756277748 -0.0178392999305  0.
0.103106429882 -0.0210021982202  0.
0.0 -0.140656499562  0.
0.0 -0.0163654832854  0.
0.0 -0.0318827234978  0.
0.0 -0.0465582266238  0.
0.0 -0.0603970202693  0.
0.0 -0.0733887961588  0.
0.0 -0.0855182609092  0.
0.0 -0.0967751191697  0.
0.0 -0.107162290836  0.
0.0 -0.116700660645  0.
0.0 -0.125430108346  0.
0.0 -0.133405622473  0.
0.0306859218215 -0.131793925319  0.
0.0454412605672 -0.132500141911  0.
0.04222139399 -0.0561699667415  0.
0.0409882778228 -0.0657609359793  0.
0.0398279163654 -0.0747616098825  0.
0.0386603132702 -0.0832434084801  0.
0.0374485119171 -0.0912223303683  0.
0.0361954425243 -0.0986803936128  0.
0.0349385375826 -0.105585990779  0.
0.0337401561652 -0.111912865041  0.
0.0326709923931 -0.11765634315  0.
0.031799579248 -0.122839690336  0.
0.0311743636433 -0.127516926581  0.
0.0645496664933 -0.0797057542481  0.
0.0628129616206 -0.0863876729862  0.
0.0610465324587 -0.0927618199756  0.
0.0591915344614 -0.098837188575  0.
0.0572370414649 -0.10458451241  0.
0.0552065041362 -0.109959016643  0.
0.0531501342301 -0.114912319564  0.
0.0511415897427 -0.119400554876  0.
0.0492626915633 -0.123396281039  0.
0.0475938893918 -0.126892965669  0.
0.0462249292256 -0.129907043653  0.
</DataArray>
<DataArray type="Float64" Name="stresses" NumberOfComponents="4" format="ascii" >
-154755.263915 -92842.3940758 -122666.352299 29268.8859148  
-73638.6657299 -76812.7125724 -73721.1753681 3234.99688803  
65363.1374366 86513.8734435 75596.2320441 41124.2284631  
26155.2751571 31726.0687453 28684.6440479 29375.8801064  
28962.028835 25687.9301217 26778.4798888 20937.0641179  
39672.6497703 30579.9220725 34423.760203 12728.8776123  
38681.9521684 26011.5606184 31699.8212655 6862.47963479  
27975.915153 13674.1692774 20408.5413709 2891.68161062  
11127.4381521 -2640.26902311 4158.71287318 592.025960753  
-7031.25850399 -17645.8471696 -12091.7817801 -57.3935851351  
-31821.8694101 -36797.954895 -33623.7139095 1904.70590408  
-65588.8763762 -105376.720356 -83773.1423987 -530.929421304  
-60386.5783019 -68449.9966805 -63129.9217413 2689.1076264  
-67790.1871342 -83936.6313633 -74346.1410638 698.947429546  
-76762.4031301 -96775.6297993 -85033.6361354 -685.329180683  
-79999.6504882 -102036.290357 -89197.6110144 -1465.02384427  
-79575.1645226 -102950.921606 -89437.7822028 -1816.66470048  
-77990.2891948 -102476.535452 -88428.7440768 -1760.12117614  
-76891.6515905 -102488.676668 -87896.3608464 -1213.1479921  
-76788.9897878 -103861.106084 -88518.5469773 2.15865400081  
-68447.8932855 -98713.2929887 -81908.9812744 2398.63280457  
-95903.5780649 -176683.097046 -134660.794861 786.255680053  
32859.8276683 -17284.4787057 7623.78783878 -2728.08946216  
23272.0013069 -35377.2850673 -5989.01645878 -4390.38191496  
14622.5501831 -47981.3774222 -16445.1625032 -4974.83874147  
3079.81469758 -63400.0547973 -29731.9383464 -4832.43491327  
-10334.0147183 -80414.5063883 -44753.1460114 -4283.92276952  
-25395.988832 -98684.4101036 -61224.4010609 -3454.52257695  
-41774.6135241 -117789.490225 -78766.8632836 -2437.51996779  
-59012.5969931 -137212.219057 -96899.906584 -1319.03711459  
-76481.7378733 -156263.164218 -114963.861509 -200.38912688  
-131799.680734 -211396.426192 -169472.519485 1022.31748302  
-134948.703416 -212006.667627 -171235.12514 2363.00121302  
-137733.122408 -210185.743602 -171528.128057 4785.80655899  
-141940.847092 -207398.57097 -171931.437666 8685.80133375  
-150453.821837 -205676.256007 -174867.524529 14307.797734  
-167798.184703 -206583.27298 -183484.803289 21414.8125919  
-196587.47331 -209762.048478 -199242.243645 27247.4472377  
-233277.625066 -217933.304568 -222085.709077 29970.608836  
-289219.089392 -248634.311419 -265709.244565 30526.061048  
54603.2527212 69935.1607197 61986.4140743 34495.6819166  
-22363.5379448 -28384.8066157 -24590.7460681 28774.9797452  
-50813.61313 -78937.1289557 -63595.3631899 24346.6544358  
-70651.942034 -117165.247487 -92127.4103603 18849.5393012  
-80094.8888081 -138695.253388 -107543.748633 12682.0196821  
-87028.365657 -153849.262158 -118615.00833 7663.52980377  
-94392.869162 -167047.759528 -128917.361377 4008.61610412  
-100566.432633 -177112.787032 -137044.307432 1634.32659736  
-104014.809635 -182741.016686 -141590.92569 239.252403762  
-761.671481134 -4356.12532472 -2406.8654767 25528.0621261  
-32387.7787756 -55372.9200636 -43017.8536847 22498.5637361  
-54262.5072575 -94845.5232135 -73053.8792725 17857.7414168  
-64975.5148752 -118586.011945 -90037.8629654 13448.1049259  
-69216.0531927 -131005.122561 -98434.3402422 8969.92614739  
-72034.0031695 -139918.172773 -104381.610081 5249.34359545  
-77065.8068782 -149540.415585 -111731.397701 2385.74284042  
-81980.6949857 -157592.325713 -118215.777022 440.800328391  
-85174.8937367 -162536.990925 -122283.597665 -698.352805992  
-22490.014316 -37079.033073 -29188.8332206 17931.174314  
-34842.2436669 -67073.6373068 -49938.7816771 15234.4788429  
-42531.812588 -89641.7337897 -64761.603729 12500.7948218  
-50267.9325139 -107268.077522 -77273.6447293 9301.44709988  
-53838.6919052 -116875.144251 -83927.2097403 5997.39992647  
-55549.4099734 -123344.964981 -88090.8699661 3193.41334055  
-59397.3784864 -130881.488161 -93798.7161516 960.325657813  
-63745.9876118 -137778.707562 -99410.7210222 -597.288643975  
-67036.1581711 -142462.119774 -103382.656996 -1503.16205185  
-18289.1043969 -38892.3835619 -28018.9290998 11193.8485037  
-25767.7860598 -63059.5663121 -43525.4026622 9749.8569841  
-30464.0588083 -80804.0418861 -54520.9712047 7982.4916312  
-33728.2282898 -92119.8447349 -61723.6960039 5744.57343611  
-37653.1458201 -100582.534251 -67945.8585261 3391.12289435  
-38998.0176007 -105695.397893 -71225.9856593 1352.56897929  
-42267.9610596 -111959.158322 -75997.1617918 -293.863732268  
-46232.4351896 -118028.731127 -80993.8407891 -1463.1902808  
-49634.1548957 -122566.752284 -84937.3832892 -2140.15819663  
-11466.3455565 -35020.7047335 -22778.6546421 6140.9714124  
-15774.8552329 -54961.7738682 -34660.9482595 5404.31728409  
-19527.6567682 -70144.118032 -43939.1696521 4251.83405007  
-19171.8373416 -76841.2947787 -47086.7152677 2737.37697029  
-22070.2079013 -83707.9414779 -51971.0364946 1160.68640516  
-23237.2106691 -87859.6729763 -54661.6084668 -218.26527079  
-25873.1683532 -92959.2028111 -58522.3935555 -1316.35042554  
-29384.4137099 -98273.5850443 -62906.6409412 -2084.37794625  
-32935.621659 -102833.464792 -66923.6967544 -2537.47067887  
-3544.10774722 -27352.3833611 -15139.2806431 2700.15595343  
-6146.27794956 -44223.6889533 -24681.2837824 2358.90319971  
-9331.44935917 -57394.1396188 -32695.5385992 1656.37548345  
-7255.53580846 -62111.8448033 -34010.9536943 581.587225486  
-8053.80116991 -67163.7120696 -36936.3604832 -501.888201719  
-8705.42564948 -70362.9037427 -38883.4994634 -1404.85020897  
-10230.5494174 -73926.2579213 -41423.0994545 -2022.61855707  
-12864.7341107 -78181.5623416 -44838.6397289 -2392.46303864  
-16570.2188656 -82920.0553847 -49007.0874577 -2611.17793229  
3536.11207702 -17857.0712924 -7017.27001556 831.849208284  
1170.43141543 -32853.2725681 -15524.5921648 705.340756407  
-750.201447903 -43453.7689196 -21659.9454801 301.453918282  
1898.28114759 -46794.954339 -21999.3698638 -436.871363491  
3502.8436608 -49926.5315825 -22771.6236868 -1308.86827371  
4017.96061678 -53400.1264012 -24263.3762499 -1993.24143244  
3796.5556144 -55868.074236 -25628.2328678 -2276.14580981  
2754.40453998 -58368.5401255 -27388.7991257 -2282.84212364  
19.748462497 -62303.7181856 -30668.8318845 -2234.81831552  
5803.80461502 -10621.3990463 -2360.62127132 594.698123309  
4020.13636045 -23388.866827 -9490.67792859 441.769843046  
5157.3464117 -29689.5129648 -12020.761611 70.6395134158  
8198.25322872 -31569.054019 -11451.6923872 -481.699420032  
11027.4138365 -32612.7973728 -10576.8379328 -1136.61228188  
12845.5112457 -34305.228729 -10515.287115 -1661.60756041  
14542.4389904 -36123.5615886 -10580.7205393 -1830.97040775  
17039.0899392 -37005.6645244 -9808.66862854 -1532.89814343  
17941.8947549 -38875.0016367 -10320.5664743 -1084.53088747  
-5655.41985632 -15563.8772271 -10397.4555708 2287.88046138  
4856.70496816 -14586.5444945 -4767.62136789 1477.57803829  
10140.627479 -15347.0849056 -2551.16413904 658.914898436  
13708.7478552 -15495.9053328 -875.707164032 -17.1278256963  
16498.6737502 -15416.2795748 530.373145951 -564.770810324  
18352.4798778 -15850.4746298 1225.98257151 -883.468190866  
19923.3056351 -16460.1275211 1696.95727585 -811.114491224  
23424.5525647 -15515.8878779 3875.24569656 -210.143574119  
34432.8431137 -8593.42400264 12661.3153644 864.233562873  
-127823.149858 -209075.547989 -166449.117955 1845.14691582  
-106138.322318 -187450.257462 -145047.206387 1499.14996838  
82367.8378408 147495.152541 113271.887692 18846.5697178  
34074.9226827 103373.186231 67786.1044577 20040.6292495  
-53433.6540888 -3069.81194601 -28080.9597192 23258.3962753  
-86116.3511362 -56264.5357562 -70061.8072609 26814.6949538  
-103812.105443 -101349.306587 -100618.484421 26627.0650819  
-111760.556384 -137901.45543 -122478.36658 23554.9816991  
-115867.735812 -165259.783757 -138004.19692 18918.50511  
-126492.544583 -188829.147801 -155276.536727 13501.69792  
-134991.419879 -206261.006503 -168326.576321 8916.21064481  
-147184.572854 -224370.958916 -183448.342106 5165.15289779  
-169688.342296 -250129.255052 -207366.232618 2761.41770678  
-150689.03989 -231040.808659 -188527.220102 1575.50500324  
-147290.641531 -224974.43331 -183758.570143 2652.3462177  
-145704.581434 -218434.105893 -179539.102896 4776.52126616  
-144300.786285 -209622.035478 -174146.32311 8244.37529701  
-139661.53081 -194262.981624 -163774.053074 13487.7746836  
-136781.312161 -171873.657749 -151193.100289 19746.9836358  
-139894.402795 -146023.264315 -140099.288052 24271.2223181  
-151805.095502 -128122.531623 -137623.498784 27318.2153446  
-200904.621239 -153114.72053 -174800.153503 25156.3008575  
-369984.882506 -344876.45597 -351383.409844 20650.3192157  
-182489.709774 -121891.080705 -149627.68553 9363.90939234  
-400377.807218 -339531.913168 -363912.221245 10166.9709156  
-77283.5738234 -10299.9260245 -43274.5302009 6559.91116347  
-54076.8102171 22735.8723533 -15664.8525378 9794.1729006  
-373284.530464 -307761.436245 -335406.922413 14052.8047924  
-169752.640076 -99874.8764271 -133123.102741 14993.953366  
-222584.973044 -152914.58243 -185181.12012 9167.98508363  
-135208.022839 -58682.4489556 -95790.2427476 12124.2080013  
-791949.588926 -846973.75551 -805260.02197 14854.1413483  
-878503.00541 -910284.507376 -877213.630595 23326.5091225  
-833417.953125 -862144.374105 -832210.080407 25308.6242361  
-791396.064457 -817780.477624 -790398.514206 26845.3738512  
-745645.387724 -769954.683339 -744872.823581 28093.5570691  
-691627.498663 -714042.688488 -691101.335281 29054.1368218  
-627830.938687 -648469.427091 -627585.604618 29721.0584518  
-553949.176135 -572946.846563 -554057.396967 30073.1841579  
-465071.19124 -482576.995164 -465711.701315 30120.6078302  
-349306.517958 -365878.360542 -350883.218947 30587.2814203  
-236199.123295 -317128.48976 -273346.676574 4043.98106291  
-411089.506527 -484125.627505 -441709.744275 7289.4007447  
-369139.09711 -430406.156614 -393602.977074 12454.9777136  
-230819.41156 -306009.652926 -264959.174982 5975.39222597  
-394872.281935 -447399.518163 -414160.442075 17180.6625866  
-217217.51472 -285820.657854 -248040.135071 9651.86176889  
-399338.52527 -445877.248498 -415594.042003 21018.3234644  
-223365.560402 -285341.268878 -250625.649145 14343.6886037  
-401926.567015 -442011.850077 -414960.198124 24237.4553076  
-228983.310119 -282161.75732 -251591.196892 19338.0936953  
-405650.728753 -438198.405331 -414845.725125 26871.1889972  
-237903.333815 -278465.30263 -253826.657058 24119.0912952  
-411998.979432 -435418.199898 -416409.540585 28769.6810772  
-250177.972629 -272916.60158 -256695.703637 27963.1405703  
-424564.392706 -436220.380759 -422745.152424 29418.6540987  
-261256.789158 -260303.786612 -255810.177509 28593.9063032  
-450655.66469 -446328.27513 -440307.154167 27828.4848267  
-271781.525111 -243528.178375 -252918.570046 26061.6840376  
-512699.925272 -478734.855522 -487009.37559 22841.0998102  
-241115.153998 -188654.955272 -211646.937099 19715.6164518  
18789.9529824 -38651.2462242 -9733.92881602 4225.01264238  
-586491.485631 -657536.025144 -613722.107104 10078.9360674  
-530272.446901 -600102.228087 -557409.218251 9053.98412977  
-472913.733521 -541511.637993 -500003.229272 8132.01469112  
-415516.902285 -482840.213871 -442574.096191 7289.11153158  
-357880.357762 -423876.284092 -384918.856196 6513.73464061  
-299910.437547 -364532.55944 -326958.292144 5817.20564606  
-241644.272803 -304869.566872 -268750.680776 5218.96047734  
-183204.763779 -245045.000431 -210443.760386 4738.98052632  
-124811.065844 -185315.181784 -152287.976455 4402.42087244  
-66576.5787731 -125829.579145 -94417.000231 4217.72909547  
-6620.78454339 -64705.9047799 -34983.0449745 4185.28577885  
15502.1700859 -41548.0472034 -12762.5125634 260.17654679  
-15437.3872291 -66411.4288973 -40105.9199019 -2095.40813115  
-396461.133293 -472567.686393 -429019.615523 6543.14890025  
-351899.520778 -426062.550166 -383867.51694 5366.23676564  
-309718.628356 -382131.108503 -341213.080435 4244.21888257  
-268604.348807 -339422.094176 -299729.036204 3110.77480351  
-228160.315592 -297343.782536 -258911.799871 1991.94526549  
-188175.470433 -255580.741096 -218502.659747 959.944967217  
-148617.39088 -214086.83931 -178469.066729 101.769920183  
-109473.86937 -172919.969793 -138838.229726 -466.128101266  
-70842.2382405 -132300.128927 -99785.5257706 -652.950732002  
-32930.8910933 -92566.5729116 -61590.8440998 -424.298506621  
3302.27449233 -54789.2266726 -25247.2872241 -19.6555069177  
-227346.787855 -308515.208852 -264743.443029 3598.25915037  
-202398.975203 -281166.921806 -238799.106932 2527.01824523  
-178437.53665 -255538.950399 -214236.657918 1238.91679945  
-154307.353987 -229658.143142 -189478.86366 -218.932766172  
-129881.165114 -203193.946529 -164295.476755 -1729.74581136  
-105326.722011 -176238.20163 -138811.403251 -3164.90018864  
-80738.0682041 -148898.792652 -113131.113737 -4398.28136811  
-56105.7346146 -121271.356991 -87312.8185804 -5306.30093324  
-31446.0746287 -93563.3838344 -61472.7173166 -5736.69749153  
-7564.97422064 -66792.8628591 -36525.0012001 -5528.48908588  
10942.1835979 -44609.3711082 -16504.1939377 -3871.07184717  
</DataArray>
<DataArray type="Float64" Name="equivalent_strain" NumberOfComponents="1" format="ascii" >
0.00249175363962  
0.0  
0.00205178931114  
0.000450324747133  
0.0  
0.0  
0.0  
0.0  
0.0  
0.0  
0.0  
0.0  
0.0  
0.0  
0.0  
0.0  
0.0  
0.0  
0.0  
0.0  
0.0  
0.00197175343199  
1.35236877935e-05  
0.000184167590547  
0.000510646996095  
0.000821627487526  
0.00110487738036  
0.00135520850921  
0.00156910932781  
0.00174430411316  
0.00187756274481  
0.00189276123614  
0.00168585414465  
0.00133522609002  
0.000882187273214  
0.000418384520268  
0.000102718295918  
7.82354842596e-05  
0.000442494698161  
0.00146018865427  
0.00112256976826  
0.000454084962145  
0.000197754763604  
0.000252128705611  
0.000559349247184  
0.00095139938376  
0.0013355750661  
0.0016351362448  
0.00181523676135  
0.00020211447379  
6.09130498323e-06  
3.05564481338e-05  
0.000228737991961  
0.000589405248062  
0.000958954756273  
0.00129449750188  
0.00154898584299  
0.00169889178559  
0.0  
0.0  
1.28485579234e-05  
0.000214865663961  
0.000568727187452  
0.000904709936949  
0.00119647974229  
0.00141266795006  
0.00153571163187  
0.0  
0.0  
3.67317395907e-06  
0.000170467445385  
0.000489310127608  
0.000786307127663  
0.00103848741171  
0.00122332635643  
0.00132575583151  
0.0  
0.0  
0.0  
0.000104810746193  
0.000347360257038  
0.00060082946648  
0.000816763370832  
0.000977535115125  
0.00106849048581  
0.0  
0.0  
0.0  
2.99814687337e-05  
0.000158383409183  
0.000349809278418  
0.000530324220711  
0.000673149930161  
0.000763993450283  
0.0  
0.0  
0.0  
0.0  
2.5760986832e-05  
8.48868122654e-05  
0.000191280255947  
0.000311838208607  
0.000413507387103  
0.0  
0.0  
0.0  
0.0  
0.0  
0.0  
3.89378851131e-06  
3.00282481048e-05  
8.52018527378e-05  
0.0  
0.0  
0.0  
0.0  
0.0  
0.0  
0.0  
0.0  
0.0  
0.00203868854766  
0.00203861936588  
0.00149537283149  
0.00188853187921  
0.000906726421235  
0.000316041196961  
0.000158488497063  
0.000223861642289  
0.000484910506236  
0.00094473544304  
0.00136046433101  
0.00170296480681  
0.00194105108435  
0.00195588457157  
0.00173883068338  
0.00135548838803  
0.000850154695234  
0.000301919490325  
0.0  
0.0  
0.000210354199611  
0.00102393497064  
0.000418840867977  
0.000571340928554  
0.000692363463916  
0.000986089371641  
0.00189397045595  
0.000996510076562  
0.00152538065076  
0.00123021396613  
0.00190978828337  
0.000843863914305  
0.000150201689639  
0.000258124324132  
0.000385096640101  
0.000494067734095  
0.000570451715583  
0.000599734437495  
0.000569216378113  
0.00046166347273  
0.000235264094357  
0.00198382490946  
0.00140990096643  
0.000738436376379  
0.00156120042323  
0.000528029707675  
0.00118710170101  
0.000537193392194  
0.000958486349263  
0.000551362963052  
0.000753423393982  
0.000532006502395  
0.000523156786232  
0.000455642333269  
0.000282815897461  
0.000349026295892  
0.000146035175435  
0.000253560408054  
0.00018594243389  
0.000342499344797  
0.000677707833478  
2.47850328077e-05  
0.0014978661356  
0.00133390849786  
0.00117963905499  
0.0010306950345  
0.00088225673429  
0.000732987514677  
0.000584434356348  
0.000440266016933  
0.000305180973203  
0.000183863535745  
7.80258151402e-05  
5.90117097577e-06  
0.0  
0.00172311244627  
0.00152457470305  
0.00135208952925  
0.00119441334027  
0.00103721382321  
0.000873154223957  
0.000700752509479  
0.00052381275562  
0.000349748984674  
0.000187895900069  
5.62874447445e-05  
0.00202840029581  
0.00182769851312  
0.00167671278596  
0.0015231806743  
0.00135378440282  
0.00116310633531  
0.000949592045662  
0.000716041322282  
0.000469232785291  
0.000217274507073  
3.29262353571e-05  
</DataArray>
</PointData>
<CellData>
</CellData>
<Points>
<DataArray type="Float64" Name="Points" NumberOfComponents="3" format="ascii">
45.0 30.0 0.0
35.0 40.0 0.0
44.0 31.0 0.0
43.0 32.0 0.0
42.0 33.0 0.0
41.0 34.0 0.0
40.0 35.0 0.0
39.0 36.0 0.0
38.0 37.0 0.0
37.0 38.0 0.0
36.0 39.0 0.0
25.0 40.0 0.0
34.0 40.0 0.0
33.0 40.0 0.0
32.0 40.0 0.0
31.0 40.0 0.0
30.0 40.0 0.0
29.0 40.0 0.0
28.0 40.0 0.0
27.0 40.0 0.0
26.0 40.0 0.0
25.0 30.0 0.0
25.0 39.0 0.0
25.0 38.0 0.0
25.0 37.0 0.0
25.0 36.0 0.0
25.0 35.0 0.0
25.0 34.0 0.0
25.0 33.0 0.0
25.0 32.0 0.0
25.0 31.0 0.0
27.0 30.0 0.0
29.0 30.0 0.0
31.0 30.0 0.0
33.0 30.0 0.0
35.0 30.0 0.0
37.0 30.0 0.0
39.0 30.0 0.0
41.0 30.0 0.0
43.0 30.0 0.0
42.1 31.0 0.0
40.2 31.0 0.0
38.3 31.0 0.0
36.4 31.0 0.0
34.5 31.0 0.0
32.6 31.0 0.0
30.7 31.0 0.0
28.8 31.0 0.0
26.9 31.0 0.0
41.2 32.0 0.0
39.4 32.0 0.0
37.6 32.0 0.0
35.8 32.0 0.0
34.0 32.0 0.0
32.2 32.0 0.0
30.4 32.0 0.0
28.6 32.0 0.0
26.8 32.0 0.0
40.3 33.0 0.0
38.6 33.0 0.0
36.9 33.0 0.0
35.2 33.0 0.0
33.5 33.0 0.0
31.8 33.0 0.0
30.1 33.0 0.0
28.4 33.0 0.0
26.7 33.0 0.0
39.4 34.0 0.0
37.8 34.0 0.0
36.2 34.0 0.0
34.6 34.0 0.0
33.0 34.0 0.0
31.4 34.0 0.0
29.8 34.0 0.0
28.2 34.0 0.0
26.6 34.0 0.0
38.5 35.0 0.0
37.0 35.0 0.0
35.5 35.0 0.0
34.0 35.0 0.0
32.5 35.0 0.0
31.0 35.0 0.0
29.5 35.0 0.0
28.0 35.0 0.0
26.5 35.0 0.0
37.6 36.0 0.0
36.2 36.0 0.0
34.8 36.0 0.0
33.4 36.0 0.0
32.0 36.0 0.0
30.6 36.0 0.0
29.2 36.0 0.0
27.8 36.0 0.0
26.4 36.0 0.0
36.7 37.0 0.0
35.4 37.0 0.0
34.1 37.0 0.0
32.8 37.0 0.0
31.5 37.0 0.0
30.2 37.0 0.0
28.9 37.0 0.0
27.6 37.0 0.0
26.3 37.0 0.0
35.8 38.0 0.0
34.6 38.0 0.0
33.4 38.0 0.0
32.2 38.0 0.0
31.0 38.0 0.0
29.8 38.0 0.0
28.6 38.0 0.0
27.4 38.0 0.0
26.2 38.0 0.0
34.9 39.0 0.0
33.8 39.0 0.0
32.7 39.0 0.0
31.6 39.0 0.0
30.5 39.0 0.0
29.4 39.0 0.0
28.3 39.0 0.0
27.2 39.0 0.0
26.1 39.0 0.0
25.0 28.0 0.0
25.0 29.0 0.0
45.0 28.0 0.0
45.0 29.0 0.0
43.0 28.0 0.0
41.0 28.0 0.0
39.0 28.0 0.0
37.0 28.0 0.0
35.0 28.0 0.0
33.0 28.0 0.0
31.0 28.0 0.0
29.0 28.0 0.0
27.0 28.0 0.0
27.0 29.0 0.0
29.0 29.0 0.0
31.0 29.0 0.0
33.0 29.0 0.0
35.0 29.0 0.0
37.0 29.0 0.0
39.0 29.0 0.0
41.0 29.0 0.0
43.0 29.0 0.0
75.0 0.0 0.0
75.0 30.0 0.0
75.0 15.0 0.0
57.8571428571 30.0 0.0
49.2857142857 30.0 0.0
57.8571428571 16.0 0.0
49.2857142857 24.0 0.0
57.8571428571 23.0 0.0
49.2857142857 27.0 0.0
0.0 0.0 0.0
7.5 0.0 0.0
15.0 0.0 0.0
22.5 0.0 0.0
30.0 0.0 0.0
37.5 0.0 0.0
45.0 0.0 0.0
52.5 0.0 0.0
60.0 0.0 0.0
67.5 0.0 0.0
21.4285714286 24.0 0.0
14.2857142857 16.0 0.0
18.6428571429 16.0 0.0
24.2142857143 24.0 0.0
23.0 16.0 0.0
27.0 24.0 0.0
27.3571428571 16.0 0.0
29.7857142857 24.0 0.0
31.7142857143 16.0 0.0
32.5714285714 24.0 0.0
36.0714285714 16.0 0.0
35.3571428571 24.0 0.0
40.4285714286 16.0 0.0
38.1428571429 24.0 0.0
44.7857142857 16.0 0.0
40.9285714286 24.0 0.0
49.1428571429 16.0 0.0
43.7142857143 24.0 0.0
53.5 16.0 0.0
46.5 24.0 0.0
0.0 40.0 0.0
0.0 3.33333333333 0.0
0.0 6.66666666667 0.0
0.0 10.0 0.0
0.0 13.3333333333 0.0
0.0 16.6666666667 0.0
0.0 20.0 0.0
0.0 23.3333333333 0.0
0.0 26.6666666667 0.0
0.0 30.0 0.0
0.0 33.3333333333 0.0
0.0 36.6666666667 0.0
14.2857142857 40.0 0.0
21.4285714286 40.0 0.0
14.2857142857 18.0 0.0
14.2857142857 20.0 0.0
14.2857142857 22.0 0.0
14.2857142857 24.0 0.0
14.2857142857 26.0 0.0
14.2857142857 28.0 0.0
14.2857142857 30.0 0.0
14.2857142857 32.0 0.0
14.2857142857 34.0 0.0
14.2857142857 36.0 0.0
14.2857142857 38.0 0.0
21.4285714286 25.3333333333 0.0
21.4285714286 26.6666666667 0.0
21.4285714286 28.0 0.0
21.4285714286 29.3333333333 0.0
21.4285714286 30.6666666667 0.0
21.4285714286 32.0 0.0
21.4285714286 33.3333333333 0.0
21.4285714286 34.6666666667 0.0
21.4285714286 36.0 0.0
21.4285714286 37.3333333333 0.0
21.4285714286 38.6666666667 0.0
</DataArray>
</Points>
<Cells>
<DataArray type="Int64" Name="connectivity" format="ascii">
0 2 40 39 
2 3 49 40 
3 4 58 49 
4 5 67 58 
5 6 76 67 
6 7 85 76 
7 8 94 85 
8 9 103 94 
9 10 112 103 
10 1 12 112 
39 40 41 38 
40 49 50 41 
49 58 59 50 
58 67 68 59 
67 76 77 68 
76 85 86 77 
85 94 95 86 
94 103 104 95 
103 112 113 104 
112 12 13 113 
38 41 42 37 
41 50 51 42 
50 59 60 51 
59 68 69 60 
68 77 78 69 
77 86 87 78 
86 95 96 87 
95 104 105 96 
104 113 114 105 
113 13 14 114 
37 42 43 36 
42 51 52 43 
51 60 61 52 
60 69 70 61 
69 78 79 70 
78 87 88 79 
87 96 97 88 
96 105 106 97 
105 114 115 106 
114 14 15 115 
36 43 44 35 
43 52 53 44 
52 61 62 53 
61 70 71 62 
70 79 80 71 
79 88 89 80 
88 97 98 89 
97 106 107 98 
106 115 116 107 
115 15 16 116 
35 44 45 34 
44 53 54 45 
53 62 63 54 
62 71 72 63 
71 80 81 72 
80 89 90 81 
89 98 99 90 
98 107 108 99 
107 116 117 108 
116 16 17 117 
34 45 46 33 
45 54 55 46 
54 63 64 55 
63 72 73 64 
72 81 82 73 
81 90 91 82 
90 99 100 91 
99 108 109 100 
108 117 118 109 
117 17 18 118 
33 46 47 32 
46 55 56 47 
55 64 65 56 
64 73 74 65 
73 82 83 74 
82 91 92 83 
91 100 101 92 
100 109 110 101 
109 118 119 110 
118 18 19 119 
32 47 48 31 
47 56 57 48 
56 65 66 57 
65 74 75 66 
74 83 84 75 
83 92 93 84 
92 101 102 93 
101 110 111 102 
110 119 120 111 
119 19 20 120 
31 48 30 21 
48 57 29 30 
57 66 28 29 
66 75 27 28 
75 84 26 27 
84 93 25 26 
93 102 24 25 
102 111 23 24 
111 120 22 23 
120 20 11 22 
121 133 134 122 
133 132 135 134 
132 131 136 135 
131 130 137 136 
130 129 138 137 
129 128 139 138 
128 127 140 139 
127 126 141 140 
126 125 142 141 
125 123 124 142 
122 134 31 21 
134 135 32 31 
135 136 33 32 
136 137 34 33 
137 138 35 34 
138 139 36 35 
139 140 37 36 
140 141 38 37 
141 142 39 38 
142 124 0 39 
143 145 150 148 
145 144 146 150 
148 150 151 149 
150 146 147 151 
149 151 124 123 
151 147 0 124 
152 153 164 163 
153 154 166 164 
154 155 168 166 
155 156 170 168 
156 157 172 170 
157 158 174 172 
158 159 176 174 
159 160 178 176 
160 161 180 178 
161 143 148 180 
163 164 165 162 
164 166 167 165 
166 168 169 167 
168 170 171 169 
170 172 173 171 
172 174 175 173 
174 176 177 175 
176 178 179 177 
178 180 181 179 
180 148 149 181 
162 165 133 121 
165 167 132 133 
167 169 131 132 
169 171 130 131 
171 173 129 130 
173 175 128 129 
175 177 127 128 
177 179 126 127 
179 181 125 126 
181 149 123 125 
152 163 196 183 
163 162 207 196 
162 121 122 207 
183 196 197 184 
196 207 208 197 
207 122 21 208 
184 197 198 185 
197 208 209 198 
208 21 30 209 
185 198 199 186 
198 209 210 199 
209 30 29 210 
186 199 200 187 
199 210 211 200 
210 29 28 211 
187 200 201 188 
200 211 212 201 
211 28 27 212 
188 201 202 189 
201 212 213 202 
212 27 26 213 
189 202 203 190 
202 213 214 203 
213 26 25 214 
190 203 204 191 
203 214 215 204 
214 25 24 215 
191 204 205 192 
204 215 216 205 
215 24 23 216 
192 205 206 193 
205 216 217 206 
216 23 22 217 
193 206 194 182 
206 217 195 194 
217 22 11 195 
</DataArray>
<DataArray type="Int64" Name="offsets" format="ascii">
4
8
12
16
20
24
28
32
36
40
44
48
52
56
60
64
68
72
76
80
84
88
92
96
100
104
108
112
116
120
124
128
132
136
140
144
148
152
156
160
164
168
172
176
180
184
188
192
196
200
204
208
212
216
220
224
228
232
236
240
244
248
252
256
260
264
268
272
276
280
284
288
292
296
300
304
308
312
316
320
324
328
332
336
340
344
348
352
356
360
364
368
372
376
380
384
388
392
396
400
404
408
412
416
420
424
428
432
436
440
444
448
452
456
460
464
468
472
476
480
484
488
492
496
500
504
508
512
516
520
524
528
532
536
540
544
548
552
556
560
564
568
572
576
580
584
588
592
596
600
604
608
612
616
620
624
628
632
636
640
644
648
652
656
660
664
668
672
676
680
684
688
692
696
700
704
708
712
716
720
724
728
732
736
740
744
748
752
756
760
764
768
</DataArray>
<DataArray type="UInt8" Name="types" format="ascii" RangeMin="9" RangeMax="9">
9
9
9
9
9
9
9
9
9
9
9
9
9
9
9
9
9
9
9
9
9
9
9
9
9
9
9
9
9
9
9
9
9
9
9
9
9
9
9
9
9
9
9
9
9
9
9
9
9
9
9
9
9
9
9
9
9
9
9
9
9
9
9
9
9
9
9
9
9
9
9
9
9
9
9
9
9
9
9
9
9
9
9
9
9
9
9
9
9
9
9
9
9
9
9
9
9
9
9
9
9
9
9
9
9
9
9
9
9
9
9
9
9
9
9
9
9
9
9
9
9
9
9
9
9
9
9
9
9
9
9
9
9
9
9
9
9
9
9
9
9
9
9
9
9
9
9
9
9
9
9
9
9
9
9
9
9
9
9
9
9
9
9
9
9
9
9
9
9
9
9
9
9
9
9
9
9
9
9
9
9
9
9
9
9
9
9
9
9
9
9
9
</DataArray>
</Cells>
</Piece>
</UnstructuredGrid>
</VTKFile>
