<?xml version="1.0"?>
<VTKFile type="UnstructuredGrid" version="0.1" byte_order="LittleEndian" compressor="vtkZLibDataCompressor">
<UnstructuredGrid>
<Piece NumberOfPoints="218" NumberOfCells="192">
<PointData>
<DataArray type="Float64" Name="displacement" NumberOfComponents="3" format="ascii" >
0.0406506320577 -0.0065270490345  0.
0.0241884467901 -0.0385501102708  0.
0.0436245536831 -0.00862430552457  0.
0.0440327960486 -0.0114172324483  0.
0.0430814599489 -0.0145388491414  0.
0.0412417517681 -0.0178893783484  0.
0.038801998262 -0.0213964005797  0.
0.0359700095533 -0.0249900891276  0.
0.0329161607408 -0.0285914625033  0.
0.0297986011275 -0.0321088130683  0.
0.0267908673937 -0.0354420685131  0.
0.0216421394447 -0.0555164671824  0.
0.0242470243734 -0.0415770595732  0.
0.0241333376833 -0.0441906680477  0.
0.0239473219414 -0.0464430977716  0.
0.0237180989618 -0.0483707081271  0.
0.0234575891802 -0.0500102271529  0.
0.0231693986603 -0.0514013667916  0.
0.0228534796665 -0.0525885129527  0.
0.0225071776026 -0.053622630892  0.
0.0221207752993 -0.0545662798542  0.
0.0287793397439 -0.04256152753  0.
0.0222494012503 -0.0548455581794  0.
0.0229751963086 -0.0540007439178  0.
0.0237851666802 -0.053004536549  0.
0.0246262761901 -0.0518614884043  0.
0.0254596444761 -0.0505802002307  0.
0.0262561961232 -0.0491725166408  0.
0.0269960240485 -0.0476520529414  0.
0.0276668207519 -0.0460332456981  0.
0.0282621264548 -0.0443309886633  0.
0.0319174822881 -0.0414491819102  0.
0.0349931240643 -0.0398249102842  0.
0.0378820240383 -0.0376190004668  0.
0.0404434607478 -0.0347658714682  0.
0.0425299644947 -0.0312388258549  0.
0.0439993197632 -0.0270818250853  0.
0.0447219540229 -0.0224191004005  0.
0.0445619003749 -0.0174197167869  0.
0.0433478397316 -0.0122407538964  0.
0.0443482925353 -0.0142217035405  0.
0.0445426166562 -0.0195592011868  0.
0.0440527545731 -0.0246151093318  0.
0.0429388676683 -0.0292585319469  0.
0.041279616287 -0.0333494446761  0.
0.0391693452139 -0.0367956373445  0.
0.0367120551717 -0.0395711283349  0.
0.0340133930628 -0.0417088453494  0.
0.0311693757181 -0.0432734932007  0.
0.0440721762736 -0.0168745037076  0.
0.0436652752753 -0.0221332472122  0.
0.0428050489384 -0.027095216008  0.
0.0414848258088 -0.0316015599329  0.
0.039761425772 -0.0355381559154  0.
0.0377063234833 -0.0388366492215  0.
0.0353986861032 -0.0414870672953  0.
0.032915019129 -0.0435279162728  0.
0.0303206779733 -0.0450228938218  0.
0.0428226750277 -0.0198743944537  0.
0.042147268069 -0.0249755326296  0.
0.0411004305291 -0.029739811405  0.
0.0397074651994 -0.0340285747039  0.
0.0380132023086 -0.0377475143546  0.
0.0360761616892 -0.0408508475283  0.
0.0339571942401 -0.0433423332901  0.
0.0317115955046 -0.045265449549  0.
0.0293820745203 -0.0466827327466  0.
0.0408690233027 -0.0230703199036  0.
0.0401034151007 -0.0279545357016  0.
0.0390188567946 -0.0324562195075  0.
0.0376584935473 -0.036469465119  0.
0.0360702070679 -0.039926623591  0.
0.0343037501356 -0.0428020904981  0.
0.0324068717789 -0.0451119396986  0.
0.0304187991066 -0.0469036777404  0.
0.0283652138233 -0.0482386729248  0.
0.0384131960674 -0.026363109369  0.
0.0376673937103 -0.0309724211412  0.
0.0366455300435 -0.0351625676079  0.
0.0353993692438 -0.0388614222275  0.
0.0339770452824 -0.0420279228403  0.
0.0324228108411 -0.0446555263188  0.
0.0307742555324 -0.0467708320893  0.
0.0290581801644 -0.0484245289562  0.
0.0272872909441 -0.0496765005132  0.
0.0356238570855 -0.0296692959737  0.
0.0349682361303 -0.0339484918863  0.
0.0340772214277 -0.0377891013703  0.
0.0330021404061 -0.0411481228227  0.
0.0317888881996 -0.0440078565157  0.
0.0304764667932 -0.0463781862093  0.
0.0290943202733 -0.0482945626829  0.
0.0276591752522 -0.0498099388616  0.
0.026173349075 -0.0509821449258  0.
0.0326536805293 -0.0329096572358  0.
0.0321348685046 -0.0368118659589  0.
0.0314176312009 -0.0402757902989  0.
0.0305485771842 -0.0432806081102  0.
0.0295703513184 -0.0458275002399  0.
0.0285168340017 -0.0479396776552  0.
0.027410617632 -0.0496595601706  0.
0.0262599566584 -0.0510417654906  0.
0.0250576660625 -0.0521416033245  0.
0.0296541182994 -0.0360073223725  0.
0.0292998156486 -0.0395010253391  0.
0.0287752512193 -0.0425724525361  0.
0.0281265820448 -0.0452174601669  0.
0.0273932115106 -0.0474531434713  0.
0.0266034167467 -0.0493126558569  0.
0.0257736826823 -0.0508431568175  0.
0.0249062134175 -0.0521008900632  0.
0.0239840146199 -0.0531402716753  0.
0.0267929984125 -0.0388994406152  0.
0.0265965030801 -0.0419702883468  0.
0.0262567331553 -0.0446391085326  0.
0.025824513334 -0.0469244787793  0.
0.0253324001156 -0.0488559695089  0.
0.0248003653338 -0.0504730939684  0.
0.0242381715117 -0.0518244960897  0.
0.0236447734825 -0.052966162766  0.
0.0230011791183 -0.0539580847455  0.
0.029583711886 -0.0389096107994  0.
0.0292210192249 -0.0407413370888  0.
0.0412713150971 -0.00955827469488  0.
0.0409365817793 -0.00821111610859  0.
0.0436432990199 -0.0137471173336  0.
0.0451941544211 -0.0178796088124  0.
0.0458348013245 -0.0218899811073  0.
0.0454507763615 -0.0256382218974  0.
0.0441051291429 -0.0290009503452  0.
0.0419564377408 -0.0318903331648  0.
0.0392075508006 -0.0342790647537  0.
0.0360681636696 -0.0362029179256  0.
0.0327769594265 -0.0377285894049  0.
0.0324137099039 -0.0396215335854  0.
0.0355898329402 -0.0380582644718  0.
0.0385841360631 -0.0359906257276  0.
0.0412182790671 -0.0333577658182  0.
0.0433151918083 -0.0301303589345  0.
0.0447141825524 -0.0263453349156  0.
0.0452821727996 -0.0221139410916  0.
0.0449295644325 -0.0176090709104  0.
0.0435829929032 -0.0129821031018  0.
0.0 0.0  0.
0.0 0.0242924340154  0.
0.0 0.0102747981157  0.
0.0192407279686 0.0139251429598  0.
0.0320010394326 0.00335690924476  0.
0.0253908370032 -0.00453302805936  0.
0.0367106367692 -0.00641572413171  0.
0.0228017862949 0.00487360123959  0.
0.0348500096389 -0.00187189448448  0.
0.0 0.0  0.
0.0 0.0  0.
0.0 0.0  0.
0.0 0.0  0.
0.0 0.0  0.
0.0 0.0  0.
0.0 0.0  0.
0.0 0.0  0.
0.0 0.0  0.
0.0 0.0  0.
0.0252063397016 -0.0334342800932  0.
0.0158873215382 -0.0218115932461  0.
0.0211734724627 -0.0198571105638  0.
0.0295187737915 -0.0317791240972  0.
0.0250755803883 -0.0189396228682  0.
0.0335939846178 -0.0302408423864  0.
0.0284258267796 -0.0180919588504  0.
0.0372430846301 -0.0286139432228  0.
0.0312396847026 -0.0171527837703  0.
0.0403578878366 -0.0266630189811  0.
0.0333922934126 -0.0160466045534  0.
0.0427148511493 -0.0243103952751  0.
0.0347135732833 -0.0147459863846  0.
0.0440775616289 -0.0215536853157  0.
0.0350251313687 -0.0132272980265  0.
0.0442535371442 -0.0184285354851  0.
0.0341018085667 -0.0113998989481  0.
0.043113805142 -0.0149456106929  0.
0.031521528468 -0.00902559005205  0.
0.0404832629903 -0.0109154522468  0.
0.0 -0.0604104298879  0.
0.0 -0.00680003911468  0.
0.0 -0.013331862294  0.
0.0 -0.0195727518519  0.
0.0 -0.0255085750815  0.
0.0 -0.0311248285274  0.
0.0 -0.036405520144  0.
0.0 -0.0413343640757  0.
0.0 -0.0458969464436  0.
0.0 -0.0500835607332  0.
0.0 -0.053892403359  0.
0.0 -0.0573325024893  0.
0.0129097186712 -0.0561918700359  0.
0.0191624836755 -0.0563075101742  0.
0.0158783689933 -0.0255074152877  0.
0.0157921299355 -0.0291150716637  0.
0.0156623662646 -0.0325956392266  0.
0.0154866916863 -0.0359394305552  0.
0.0152575537134 -0.0391375292255  0.
0.0149710129456 -0.0421763472452  0.
0.0146302359719 -0.0450379800692  0.
0.0142480597449 -0.0477025721219  0.
0.0138491377771 -0.0501522049477  0.
0.0134707672942 -0.0523763168914  0.
0.0131607832565 -0.0543780172619  0.
0.0248718233313 -0.0360009808204  0.
0.0245586697731 -0.038421587226  0.
0.0242011313192 -0.0407557806426  0.
0.0237782573794 -0.0430071388506  0.
0.0232826904822 -0.0451649479953  0.
0.0227145495967 -0.0472135312636  0.
0.0220820349823 -0.0491346243285  0.
0.0214036906698 -0.0509090734472  0.
0.0207106956943 -0.0525194250261  0.
0.0200486736358 -0.0539536225087  0.
0.0194781415472 -0.0552103930403  0.
</DataArray>
<DataArray type="Float64" Name="stresses" NumberOfComponents="4" format="ascii" >
-84428.8199602 -45347.5593939 -63711.6837862 19407.3639037  
-45759.9385194 -46048.8661124 -44986.3142696 2475.34251837  
32768.2089195 43232.3761413 37408.0974361 25741.2556202  
15889.1478655 17204.5767889 16215.9250807 18355.9368526  
19275.3769166 15926.3113848 17248.8272677 12704.7068815  
16541.1496127 10850.0889729 13421.706907 8925.2202763  
9834.14212217 3137.27278907 6355.99330651 6267.19255314  
787.681295373 -5962.59531396 -2535.70786911 4341.62133785  
-8576.74408684 -14480.0317855 -11297.8201775 2948.34336522  
-15955.5564957 -19943.7787053 -17590.6742485 2074.9417575  
-25161.6744793 -26172.7057307 -25153.8463029 2275.72621498  
-20682.1223174 -37638.4343305 -28577.0727575 -83.6514758156  
-35330.2122729 -37554.7911305 -35713.6516677 2029.94842063  
-37499.2244978 -43177.5641251 -39531.6264252 630.28480483  
-39632.1195748 -47002.4987168 -42450.9629629 -467.748288691  
-38431.6736202 -46787.969231 -41757.6249971 -1154.11526878  
-35161.9024927 -44199.6441621 -38887.1578609 -1470.4049936  
-31060.2080951 -40691.3519569 -35158.2644255 -1467.78583695  
-27205.2962978 -37474.5059863 -31693.1031192 -1163.63443755  
-24354.0370753 -35473.063064 -29315.2790683 -504.075724854  
-19728.3403065 -32473.7606506 -25579.029469 728.591754634  
-44738.5839086 -90214.1115066 -66126.8207534 419.977397762  
10229.1697141 -10208.3494369 10.201935825 -1128.14673625  
4942.49557874 -19542.3732421 -7153.94005502 -2159.08337476  
1457.12091815 -26803.7979004 -12419.8717213 -2703.66479898  
-2996.54209758 -34823.5870911 -18531.8633025 -2825.52625705  
-8267.55650978 -43359.0130722 -25297.0190952 -2638.44859394  
-14276.5499657 -52267.7152342 -32606.689948 -2226.02303158  
-20995.3297401 -61489.2125909 -40417.4257422 -1658.96597601  
-28381.196705 -70967.0577222 -48680.6446693 -995.903697826  
-36275.9725762 -80528.1619041 -57234.0258953 -285.928357824  
-57467.8913099 -102372.415178 -78321.7501788 937.259460958  
-58343.1225022 -101575.61656 -78360.1821403 2136.88764669  
-59966.7173105 -99740.9550009 -78256.7594326 3577.15884699  
-62732.411068 -97119.2017433 -78327.2902776 5387.45754943  
-67290.3237176 -94376.9774876 -79216.9775905 7550.2715602  
-74248.580152 -92269.9662405 -81594.0877323 9938.45072904  
-85629.2654319 -92944.9974467 -87501.3888106 12407.0678337  
-104327.80628 -99127.5653342 -99693.132091 14842.3093915  
-136831.1937 -115424.964185 -123581.149146 17962.1568908  
5036.18023973 12186.1493056 8416.45909888 20620.4552458  
-30234.8466962 -33515.876419 -31237.8543264 15740.1504257  
-37770.7867029 -50817.7387536 -43408.3774737 12664.8500472  
-40426.0910252 -62031.4624778 -50204.2012165 9917.64193317  
-41567.6131195 -70418.761939 -54873.3237786 7345.15527085  
-42670.3104328 -77332.6806573 -58801.4656341 5028.00796139  
-44015.8906542 -82984.5801863 -62230.2307119 3075.18653732  
-45435.5203292 -87255.8744439 -65018.7834388 1523.06526719  
-46748.8648015 -90128.2972514 -67069.8094059 288.422771019  
-14592.2142048 -17918.9411605 -15930.466129 15454.3847922  
-24082.7772156 -34653.3598195 -28780.7071472 12890.1926306  
-30474.8909565 -48273.0118875 -38586.4723936 10580.0930897  
-32531.2216816 -56996.2992334 -43868.4852483 8295.79311861  
-33595.2258074 -63708.6063002 -47678.8777327 6047.3098457  
-34612.5301938 -69223.861667 -50879.8320118 3963.83247189  
-35871.2456686 -73803.1573567 -53740.4574824 2181.549494  
-37226.5633726 -77400.4617491 -56167.2423097 761.433523054  
-38505.1256882 -80027.9618545 -58081.2128959 -348.583850046  
-16875.9393104 -25057.416704 -20547.344447 11499.1783811  
-20939.713914 -35640.014993 -27724.0671644 10231.8794009  
-23242.0926388 -43826.7789216 -32863.7470646 8531.42014231  
-25030.9774753 -50915.9823859 -37214.010332 6621.97917017  
-26063.1336262 -56384.1996856 -40399.1933228 4665.1718063  
-27119.9045414 -60914.750045 -43136.9807473 2830.29705478  
-28345.4958971 -64683.0739257 -45583.9992132 1261.01010427  
-29624.450435 -67714.7583585 -47696.2123088 24.5268878835  
-30701.8903967 -69969.0552611 -49328.7633723 -920.025592888  
-14606.5640076 -24932.699676 -19374.239205 8454.07889821  
-16697.0280364 -33205.0475269 -24452.017026 7752.94979053  
-17627.5108837 -39271.2034298 -27880.3700136 6498.81557521  
-18531.4956562 -44532.3536032 -30901.2861371 4924.36498428  
-19395.3144892 -48915.9580016 -33472.5235205 3259.29041163  
-20337.6049942 -52545.4594093 -35712.7015577 1692.95162242  
-21435.4653812 -55590.5133783 -37742.7295922 368.879372741  
-22540.4965915 -58085.1485879 -39506.5661379 -649.239452536  
-23371.3988162 -59985.8989173 -40845.0758894 -1397.900782  
-10959.4041363 -21766.6814767 -16035.7819504 6103.99136314  
-12130.8327761 -28770.7506532 -20041.7758803 5619.05747367  
-12530.420443 -33760.9884671 -22682.790366 4622.77141415  
-12982.3221798 -37894.4432268 -24929.6150492 3321.80766215  
-13514.509966 -41267.8339064 -26843.3484975 1931.70738158  
-14218.2916894 -44071.5903826 -28562.0422153 639.385149805  
-15060.3766524 -46429.709557 -30130.1422426 -421.615668032  
-15905.8827604 -48428.5939305 -31523.8935786 -1197.66204154  
-16497.0105538 -50062.2926574 -32614.0585735 -1727.75002827  
-6828.68586733 -16920.8125048 -11637.2542024 4310.51382448  
-7788.04205957 -23255.8124455 -15211.4887075 3870.47100909  
-8015.39009615 -27601.409801 -17452.2319496 3022.29062829  
-8132.17208925 -30880.9290589 -19116.4195626 1929.49533823  
-8315.53757422 -33398.9453856 -20440.0966503 785.246856371  
-8662.99959573 -35417.2151761 -21599.3052382 -240.825952914  
-9125.92460372 -37102.3906196 -22651.8744594 -1030.28198185  
-9620.72254621 -38632.3469155 -23644.0040362 -1545.17614365  
-9990.97729385 -40111.1732131 -24550.0537484 -1838.03534312  
-2972.71772195 -11352.0247917 -7019.12383171 3012.75168423  
-4233.40258277 -17461.8258208 -10630.6619178 2558.70929557  
-4211.18786184 -21133.6051971 -12418.9485989 1786.84946393  
-3842.36285878 -23504.4187032 -13399.9229653 845.078225141  
-3628.63198469 -25230.0173348 -14140.7381666 -89.1142928326  
-3583.1136122 -26534.6824706 -14757.7200806 -865.059974195  
-3547.95312839 -27523.6003446 -15225.0612018 -1381.3138215  
-3500.16543757 -28485.8339166 -15673.1396836 -1613.7865699  
-3637.19427825 -29908.8217322 -16437.5478451 -1642.75095035  
-1235.65346122 -7019.5168912 -4045.03347268 2278.28306694  
-2228.59706936 -12394.9305054 -7165.52851161 1758.95525813  
-837.859342796 -14312.5529872 -7423.70204169 983.140873963  
196.287737481 -15625.4162657 -7560.27297882 133.04209193  
785.599336026 -16627.7130768 -7762.63573299 -624.034229768  
1115.64031962 -17387.3916072 -7973.15813093 -1167.91096319  
1543.18845696 -17830.7658153 -7980.91290559 -1417.31321339  
2569.14051467 -17818.3177776 -7472.09685885 -1348.66613895  
3477.55300259 -18481.4048668 -7351.88741345 -1051.32576153  
-6278.34928181 -8992.1150672 -7482.52753102 2325.71363677  
-141.146731901 -6869.10079176 -3435.02128659 1505.39583748  
3287.78798797 -6248.80099708 -1450.89637447 585.706124253  
4758.795327 -6624.98034725 -914.430659919 -214.776013138  
5276.15470319 -7335.43554579 -1009.04761287 -800.238251043  
5381.01994318 -8101.48492757 -1333.02784235 -1118.56968413  
5614.13819942 -8623.60772723 -1474.64006863 -1127.96906164  
6988.29838103 -8207.60674955 -597.461100574 -784.679687829  
11636.1600224 -5340.61056527 3084.81923398 -99.4394458245  
-60638.1744148 -107081.092239 -82182.4406601 1471.44880648  
-50138.548889 -96262.1211411 -71736.3283147 1054.02971158  
19393.0746847 55175.6830936 36538.6913113 11860.8994806  
-1134.46749447 39205.9460842 18655.024509 12873.2089006  
-33916.7213175 -8287.55471247 -20680.0952547 13380.7053884  
-42860.0656181 -29487.7719455 -35450.4404062 13105.2203262  
-52341.2147884 -52624.3200402 -51433.112066 12212.2191932  
-56547.6963787 -70563.632422 -62284.5511124 10860.5853751  
-59440.8891493 -85616.245924 -71077.9961859 9124.07942364  
-62375.175873 -98248.2220894 -78705.4650016 7167.27337639  
-65703.9248773 -108483.625796 -85351.8998301 5215.1808671  
-71669.5572104 -118439.152207 -93153.2676143 3521.29342143  
-78943.8521438 -126472.195034 -100653.863117 2262.34222632  
-66792.896038 -113135.173642 -88164.7541431 1617.64822178  
-67556.2366091 -112571.038208 -88262.3646603 2484.61182416  
-67555.2809055 -108858.359943 -86442.6840158 3438.66632377  
-67984.7495575 -103159.690336 -83860.7755479 4755.5584013  
-68826.7150961 -95577.2335685 -80557.9348457 6480.03625209  
-69055.5064781 -85344.7258313 -75656.1138316 8579.70578238  
-68572.5081436 -72846.4023266 -69295.2661304 10923.7741646  
-69779.7923052 -60991.3226824 -64077.8463439 13200.2179485  
-93990.7692403 -70481.6768656 -80591.4985919 14776.906418  
-187476.464288 -176504.811244 -178350.82501 8397.93205593  
-86362.1588742 -59141.3348378 -71296.7119189 4334.28395042  
-196814.377739 -168864.543533 -179182.671423 4760.02714819  
-38067.9121942 -3858.40084012 -20543.8933868 3172.81749025  
-40707.0351424 5665.16481098 -17170.5164624 5592.32152789  
-183285.081423 -149204.201269 -162919.748519 7188.49765599  
-92578.3878161 -53610.9505682 -71632.7758083 8961.31558306  
-115159.155809 -77445.3484044 -94376.2070646 5053.30149591  
-79729.4513266 -34404.6279749 -55925.6988577 7441.95236673  
-380762.393758 -410426.766155 -387682.688358 6064.35404562  
-427114.836864 -442627.588622 -426173.788488 9062.10505854  
-406005.33606 -421061.113465 -405262.560267 10613.582151  
-386594.062116 -401085.00592 -385962.743338 11927.9074734  
-364973.92123 -378832.737537 -364465.262796 13026.403013  
-339428.839703 -352556.974554 -339073.048986 13867.700592  
-309370.137065 -321656.197891 -309202.904128 14392.7975213  
-274320.231789 -285644.845475 -274382.887859 14535.5035705  
-232314.021314 -242528.540584 -232672.85533 14211.0306863  
-177835.865892 -186915.218157 -178728.031184 13260.7923966  
-110191.602798 -156657.49732 -130756.059058 2300.59211406  
-197752.397146 -237870.615942 -213455.276413 3319.58148214  
-182891.382471 -217227.69299 -196058.346976 5394.14253671  
-110435.163303 -155548.025158 -130331.762346 3062.12969753  
-193530.328469 -222481.493173 -203845.792605 7463.76931591  
-102758.77575 -144101.687664 -120961.627073 4753.78615808  
-197005.693325 -222911.368635 -205759.36036 9543.74720492  
-104646.56121 -141380.304513 -120553.164204 7041.1360615  
-199183.481524 -221703.937999 -206234.835566 11379.1477401  
-108431.298195 -139094.007141 -121287.399614 9412.37947578  
-201697.94967 -220011.624952 -206637.691565 12756.9276029  
-114328.126034 -136818.183455 -123061.69165 11325.8540631  
-205225.237149 -218370.1859 -207561.757294 13446.3864424  
-121413.182456 -133724.833216 -125017.627679 12344.8950087  
-210769.516514 -217641.156001 -209921.229532 13285.424881  
-128145.253601 -128696.302706 -125852.36259 12243.4795787  
-221220.163096 -220084.906335 -216239.484021 12124.3446712  
-133262.313711 -120424.610845 -124306.593033 11166.4604912  
-245122.887517 -229431.028726 -232531.418959 9702.40642268  
-120447.863056 -93960.9473878 -105060.317117 9641.49699559  
5306.75949941 -19231.6115547 -6823.17750708 2035.6502629  
-281388.433823 -323278.450915 -296286.773522 5077.22224407  
-255808.870016 -296444.050126 -270603.93087 4666.92497842  
-229326.296663 -268607.700533 -243987.658626 4254.99410019  
-202487.9579 -240317.082043 -216974.469572 3857.527615  
-175388.047451 -211656.5237 -189651.839864 3479.06831173  
-148024.222387 -182620.063489 -162015.70008 3125.27875081  
-120392.377806 -153213.017908 -134066.6439 2804.95953498  
-92510.9445885 -123480.733347 -105835.922188 2529.07080386  
-64422.14346 -93512.8332102 -77388.1385684 2308.45394729  
-36176.2530115 -63427.4764017 -48805.8274125 2150.66330194  
-6983.9057981 -32482.4743027 -19338.5262494 2061.48403766  
5185.13865043 -18970.671436 -6754.91106493 159.096965091  
-4107.05778121 -25774.3601806 -14641.8948013 -818.59224308  
-191562.760883 -232317.923513 -207701.535354 3200.71612853  
-171315.437845 -211429.939584 -187545.23494 2759.22471878  
-151723.893053 -190835.924633 -167854.310666 2313.5998286  
-132381.981424 -170358.436389 -148342.804729 1849.59725804  
-113194.605383 -149885.858774 -128909.427437 1368.2097146  
-94143.6848071 -129344.867692 -109509.390725 888.570452906  
-75233.2871746 -108700.469471 -90127.5407564 447.003465598  
-56477.6122483 -87967.3832445 -70778.0477915 95.128450344  
-37896.4656669 -67224.9451206 -51509.4912859 -105.966833478  
-19493.030283 -46610.5697858 -32390.7640337 -98.6052954624  
-1640.74524514 -26766.0028532 -13919.3065682 46.0229739553  
-109783.627586 -154678.315387 -129586.352057 1948.18785819  
-97556.0222539 -140640.7384 -116716.41272 1299.80956207  
-85958.3574631 -127822.351793 -104752.547536 627.516365327  
-74472.2613867 -115046.02087 -92863.9583058 -87.9518484661  
-62984.4949996 -102015.241259 -80849.870767 -815.934174188  
-51518.0399037 -88676.1753795 -68695.1654888 -1510.54067136  
-40122.9473391 -75041.2638605 -56430.4634878 -2110.30874296  
-28845.4820848 -61162.0943277 -44103.7124421 -2537.09206862  
-17721.2377394 -47142.6345577 -31783.2974256 -2698.74216944  
-6864.67287547 -33252.9983876 -19657.6589189 -2497.36753001  
2228.6973371 -21234.3809542 -9312.78497236 -1623.90857896  
</DataArray>
<DataArray type="Float64" Name="equivalent_strain" NumberOfComponents="1" format="ascii" >
5.23144077801e-05  
0.0  
0.000153167848298  
0.0  
0.0  
0.0  
0.0  
0.0  
0.0  
0.0  
0.0  
0.0  
0.0  
0.0  
0.0  
0.0  
0.0  
0.0  
0.0  
0.0  
0.0  
0.0  
0.0  
0.0  
0.0  
0.0  
0.0  
0.0  
0.0  
0.0  
0.0  
0.0  
0.0  
0.0  
0.0  
0.0  
0.0  
0.0  
0.0  
0.0  
0.0  
0.0  
0.0  
0.0  
0.0  
0.0  
0.0  
0.0  
0.0  
0.0  
0.0  
0.0  
0.0  
0.0  
0.0  
0.0  
0.0  
0.0  
0.0  
0.0  
0.0  
0.0  
0.0  
0.0  
0.0  
0.0  
0.0  
0.0  
0.0  
0.0  
0.0  
0.0  
0.0  
0.0  
0.0  
0.0  
0.0  
0.0  
0.0  
0.0  
0.0  
0.0  
0.0  
0.0  
0.0  
0.0  
0.0  
0.0  
0.0  
0.0  
0.0  
0.0  
0.0  
0.0  
0.0  
0.0  
0.0  
0.0  
0.0  
0.0  
0.0  
0.0  
0.0  
0.0  
0.0  
0.0  
0.0  
0.0  
0.0  
0.0  
0.0  
0.0  
0.0  
0.0  
0.0  
0.0  
0.0  
0.0  
0.0  
0.0  
0.0  
0.0  
0.0  
0.0  
0.0  
0.0  
0.0  
0.0  
0.0  
0.0  
0.0  
0.0  
0.0  
0.0  
0.0  
0.0  
0.0  
0.0  
0.0  
0.0  
0.0  
0.0  
0.0  
0.0  
0.0  
0.0  
0.0  
0.0  
0.0  
0.0  
0.0  
0.0  
0.0  
0.0  
0.0  
0.0  
0.0  
0.0  
0.0  
0.0  
0.0  
0.0  
0.0  
0.0  
0.0  
0.0  
0.0  
0.0  
0.0  
0.0  
0.0  
0.0  
0.0  
0.0  
0.0  
0.0  
0.0  
0.0  
0.0  
0.0  
0.0  
0.0  
0.0  
0.0  
0.0  
0.0  
0.0  
0.0  
0.0  
0.0  
0.0  
0.0  
0.0  
0.0  
0.0  
0.0  
0.0  
0.0  
0.0  
0.0  
0.0  
0.0  
0.0  
0.0  
0.0  
0.0  
0.0  
0.0  
0.0  
0.0  
0.0  
0.0  
0.0  
0.0  
0.0  
0.0  
0.0  
0.0  
</DataArray>
</PointData>
<CellData>
</CellData>
<Points>
<DataArray type="Float64" Name="Points" NumberOfComponents="3" format="ascii">
45.0 30.0 0.0
35.0 40.0 0.0
44.0 31.0 0.0
43.0 32.0 0.0
42.0 33.0 0.0
41.0 34.0 0.0
40.0 35.0 0.0
39.0 36.0 0.0
38.0 37.0 0.0
37.0 38.0 0.0
36.0 39.0 0.0
25.0 40.0 0.0
34.0 40.0 0.0
33.0 40.0 0.0
32.0 40.0 0.0
31.0 40.0 0.0
30.0 40.0 0.0
29.0 40.0 0.0
28.0 40.0 0.0
27.0 40.0 0.0
26.0 40.0 0.0
25.0 30.0 0.0
25.0 39.0 0.0
25.0 38.0 0.0
25.0 37.0 0.0
25.0 36.0 0.0
25.0 35.0 0.0
25.0 34.0 0.0
25.0 33.0 0.0
25.0 32.0 0.0
25.0 31.0 0.0
27.0 30.0 0.0
29.0 30.0 0.0
31.0 30.0 0.0
33.0 30.0 0.0
35.0 30.0 0.0
37.0 30.0 0.0
39.0 30.0 0.0
41.0 30.0 0.0
43.0 30.0 0.0
42.1 31.0 0.0
40.2 31.0 0.0
38.3 31.0 0.0
36.4 31.0 0.0
34.5 31.0 0.0
32.6 31.0 0.0
30.7 31.0 0.0
28.8 31.0 0.0
26.9 31.0 0.0
41.2 32.0 0.0
39.4 32.0 0.0
37.6 32.0 0.0
35.8 32.0 0.0
34.0 32.0 0.0
32.2 32.0 0.0
30.4 32.0 0.0
28.6 32.0 0.0
26.8 32.0 0.0
40.3 33.0 0.0
38.6 33.0 0.0
36.9 33.0 0.0
35.2 33.0 0.0
33.5 33.0 0.0
31.8 33.0 0.0
30.1 33.0 0.0
28.4 33.0 0.0
26.7 33.0 0.0
39.4 34.0 0.0
37.8 34.0 0.0
36.2 34.0 0.0
34.6 34.0 0.0
33.0 34.0 0.0
31.4 34.0 0.0
29.8 34.0 0.0
28.2 34.0 0.0
26.6 34.0 0.0
38.5 35.0 0.0
37.0 35.0 0.0
35.5 35.0 0.0
34.0 35.0 0.0
32.5 35.0 0.0
31.0 35.0 0.0
29.5 35.0 0.0
28.0 35.0 0.0
26.5 35.0 0.0
37.6 36.0 0.0
36.2 36.0 0.0
34.8 36.0 0.0
33.4 36.0 0.0
32.0 36.0 0.0
30.6 36.0 0.0
29.2 36.0 0.0
27.8 36.0 0.0
26.4 36.0 0.0
36.7 37.0 0.0
35.4 37.0 0.0
34.1 37.0 0.0
32.8 37.0 0.0
31.5 37.0 0.0
30.2 37.0 0.0
28.9 37.0 0.0
27.6 37.0 0.0
26.3 37.0 0.0
35.8 38.0 0.0
34.6 38.0 0.0
33.4 38.0 0.0
32.2 38.0 0.0
31.0 38.0 0.0
29.8 38.0 0.0
28.6 38.0 0.0
27.4 38.0 0.0
26.2 38.0 0.0
34.9 39.0 0.0
33.8 39.0 0.0
32.7 39.0 0.0
31.6 39.0 0.0
30.5 39.0 0.0
29.4 39.0 0.0
28.3 39.0 0.0
27.2 39.0 0.0
26.1 39.0 0.0
25.0 28.0 0.0
25.0 29.0 0.0
45.0 28.0 0.0
45.0 29.0 0.0
43.0 28.0 0.0
41.0 28.0 0.0
39.0 28.0 0.0
37.0 28.0 0.0
35.0 28.0 0.0
33.0 28.0 0.0
31.0 28.0 0.0
29.0 28.0 0.0
27.0 28.0 0.0
27.0 29.0 0.0
29.0 29.0 0.0
31.0 29.0 0.0
33.0 29.0 0.0
35.0 29.0 0.0
37.0 29.0 0.0
39.0 29.0 0.0
41.0 29.0 0.0
43.0 29.0 0.0
75.0 0.0 0.0
75.0 30.0 0.0
75.0 15.0 0.0
57.8571428571 30.0 0.0
49.2857142857 30.0 0.0
57.8571428571 16.0 0.0
49.2857142857 24.0 0.0
57.8571428571 23.0 0.0
49.2857142857 27.0 0.0
0.0 0.0 0.0
7.5 0.0 0.0
15.0 0.0 0.0
22.5 0.0 0.0
30.0 0.0 0.0
37.5 0.0 0.0
45.0 0.0 0.0
52.5 0.0 0.0
60.0 0.0 0.0
67.5 0.0 0.0
21.4285714286 24.0 0.0
14.2857142857 16.0 0.0
18.6428571429 16.0 0.0
24.2142857143 24.0 0.0
23.0 16.0 0.0
27.0 24.0 0.0
27.3571428571 16.0 0.0
29.7857142857 24.0 0.0
31.7142857143 16.0 0.0
32.5714285714 24.0 0.0
36.0714285714 16.0 0.0
35.3571428571 24.0 0.0
40.4285714286 16.0 0.0
38.1428571429 24.0 0.0
44.7857142857 16.0 0.0
40.9285714286 24.0 0.0
49.1428571429 16.0 0.0
43.7142857143 24.0 0.0
53.5 16.0 0.0
46.5 24.0 0.0
0.0 40.0 0.0
0.0 3.33333333333 0.0
0.0 6.66666666667 0.0
0.0 10.0 0.0
0.0 13.3333333333 0.0
0.0 16.6666666667 0.0
0.0 20.0 0.0
0.0 23.3333333333 0.0
0.0 26.6666666667 0.0
0.0 30.0 0.0
0.0 33.3333333333 0.0
0.0 36.6666666667 0.0
14.2857142857 40.0 0.0
21.4285714286 40.0 0.0
14.2857142857 18.0 0.0
14.2857142857 20.0 0.0
14.2857142857 22.0 0.0
14.2857142857 24.0 0.0
14.2857142857 26.0 0.0
14.2857142857 28.0 0.0
14.2857142857 30.0 0.0
14.2857142857 32.0 0.0
14.2857142857 34.0 0.0
14.2857142857 36.0 0.0
14.2857142857 38.0 0.0
21.4285714286 25.3333333333 0.0
21.4285714286 26.6666666667 0.0
21.4285714286 28.0 0.0
21.4285714286 29.3333333333 0.0
21.4285714286 30.6666666667 0.0
21.4285714286 32.0 0.0
21.4285714286 33.3333333333 0.0
21.4285714286 34.6666666667 0.0
21.4285714286 36.0 0.0
21.4285714286 37.3333333333 0.0
21.4285714286 38.6666666667 0.0
</DataArray>
</Points>
<Cells>
<DataArray type="Int64" Name="connectivity" format="ascii">
0 2 40 39 
2 3 49 40 
3 4 58 49 
4 5 67 58 
5 6 76 67 
6 7 85 76 
7 8 94 85 
8 9 103 94 
9 10 112 103 
10 1 12 112 
39 40 41 38 
40 49 50 41 
49 58 59 50 
58 67 68 59 
67 76 77 68 
76 85 86 77 
85 94 95 86 
94 103 104 95 
103 112 113 104 
112 12 13 113 
38 41 42 37 
41 50 51 42 
50 59 60 51 
59 68 69 60 
68 77 78 69 
77 86 87 78 
86 95 96 87 
95 104 105 96 
104 113 114 105 
113 13 14 114 
37 42 43 36 
42 51 52 43 
51 60 61 52 
60 69 70 61 
69 78 79 70 
78 87 88 79 
87 96 97 88 
96 105 106 97 
105 114 115 106 
114 14 15 115 
36 43 44 35 
43 52 53 44 
52 61 62 53 
61 70 71 62 
70 79 80 71 
79 88 89 80 
88 97 98 89 
97 106 107 98 
106 115 116 107 
115 15 16 116 
35 44 45 34 
44 53 54 45 
53 62 63 54 
62 71 72 63 
71 80 81 72 
80 89 90 81 
89 98 99 90 
98 107 108 99 
107 116 117 108 
116 16 17 117 
34 45 46 33 
45 54 55 46 
54 63 64 55 
63 72 73 64 
72 81 82 73 
81 90 91 82 
90 99 100 91 
99 108 109 100 
108 117 118 109 
117 17 18 118 
33 46 47 32 
46 55 56 47 
55 64 65 56 
64 73 74 65 
73 82 83 74 
82 91 92 83 
91 100 101 92 
100 109 110 101 
109 118 119 110 
118 18 19 119 
32 47 48 31 
47 56 57 48 
56 65 66 57 
65 74 75 66 
74 83 84 75 
83 92 93 84 
92 101 102 93 
101 110 111 102 
110 119 120 111 
119 19 20 120 
31 48 30 21 
48 57 29 30 
57 66 28 29 
66 75 27 28 
75 84 26 27 
84 93 25 26 
93 102 24 25 
102 111 23 24 
111 120 22 23 
120 20 11 22 
121 133 134 122 
133 132 135 134 
132 131 136 135 
131 130 137 136 
130 129 138 137 
129 128 139 138 
128 127 140 139 
127 126 141 140 
126 125 142 141 
125 123 124 142 
122 134 31 21 
134 135 32 31 
135 136 33 32 
136 137 34 33 
137 138 35 34 
138 139 36 35 
139 140 37 36 
140 141 38 37 
141 142 39 38 
142 124 0 39 
143 145 150 148 
145 144 146 150 
148 150 151 149 
150 146 147 151 
149 151 124 123 
151 147 0 124 
152 153 164 163 
153 154 166 164 
154 155 168 166 
155 156 170 168 
156 157 172 170 
157 158 174 172 
158 159 176 174 
159 160 178 176 
160 161 180 178 
161 143 148 180 
163 164 165 162 
164 166 167 165 
166 168 169 167 
168 170 171 169 
170 172 173 171 
172 174 175 173 
174 176 177 175 
176 178 179 177 
178 180 181 179 
180 148 149 181 
162 165 133 121 
165 167 132 133 
167 169 131 132 
169 171 130 131 
171 173 129 130 
173 175 128 129 
175 177 127 128 
177 179 126 127 
179 181 125 126 
181 149 123 125 
152 163 196 183 
163 162 207 196 
162 121 122 207 
183 196 197 184 
196 207 208 197 
207 122 21 208 
184 197 198 185 
197 208 209 198 
208 21 30 209 
185 198 199 186 
198 209 210 199 
209 30 29 210 
186 199 200 187 
199 210 211 200 
210 29 28 211 
187 200 201 188 
200 211 212 201 
211 28 27 212 
188 201 202 189 
201 212 213 202 
212 27 26 213 
189 202 203 190 
202 213 214 203 
213 26 25 214 
190 203 204 191 
203 214 215 204 
214 25 24 215 
191 204 205 192 
204 215 216 205 
215 24 23 216 
192 205 206 193 
205 216 217 206 
216 23 22 217 
193 206 194 182 
206 217 195 194 
217 22 11 195 
</DataArray>
<DataArray type="Int64" Name="offsets" format="ascii">
4
8
12
16
20
24
28
32
36
40
44
48
52
56
60
64
68
72
76
80
84
88
92
96
100
104
108
112
116
120
124
128
132
136
140
144
148
152
156
160
164
168
172
176
180
184
188
192
196
200
204
208
212
216
220
224
228
232
236
240
244
248
252
256
260
264
268
272
276
280
284
288
292
296
300
304
308
312
316
320
324
328
332
336
340
344
348
352
356
360
364
368
372
376
380
384
388
392
396
400
404
408
412
416
420
424
428
432
436
440
444
448
452
456
460
464
468
472
476
480
484
488
492
496
500
504
508
512
516
520
524
528
532
536
540
544
548
552
556
560
564
568
572
576
580
584
588
592
596
600
604
608
612
616
620
624
628
632
636
640
644
648
652
656
660
664
668
672
676
680
684
688
692
696
700
704
708
712
716
720
724
728
732
736
740
744
748
752
756
760
764
768
</DataArray>
<DataArray type="UInt8" Name="types" format="ascii" RangeMin="9" RangeMax="9">
9
9
9
9
9
9
9
9
9
9
9
9
9
9
9
9
9
9
9
9
9
9
9
9
9
9
9
9
9
9
9
9
9
9
9
9
9
9
9
9
9
9
9
9
9
9
9
9
9
9
9
9
9
9
9
9
9
9
9
9
9
9
9
9
9
9
9
9
9
9
9
9
9
9
9
9
9
9
9
9
9
9
9
9
9
9
9
9
9
9
9
9
9
9
9
9
9
9
9
9
9
9
9
9
9
9
9
9
9
9
9
9
9
9
9
9
9
9
9
9
9
9
9
9
9
9
9
9
9
9
9
9
9
9
9
9
9
9
9
9
9
9
9
9
9
9
9
9
9
9
9
9
9
9
9
9
9
9
9
9
9
9
9
9
9
9
9
9
9
9
9
9
9
9
9
9
9
9
9
9
9
9
9
9
9
9
9
9
9
9
9
9
</DataArray>
</Cells>
</Piece>
</UnstructuredGrid>
</VTKFile>
