<?xml version="1.0"?>
<VTKFile type="UnstructuredGrid" version="0.1" byte_order="LittleEndian" compressor="vtkZLibDataCompressor">
<UnstructuredGrid>
<Piece NumberOfPoints="218" NumberOfCells="192">
<PointData>
<DataArray type="Float64" Name="displacement" NumberOfComponents="3" format="ascii" >
0.0325374379522 -0.00523257136926  0.
0.0193378520076 -0.0308306541429  0.
0.0348336704376 -0.00690483591842  0.
0.035187211207 -0.00912919875643  0.
0.0344379081846 -0.0116228833381  0.
0.0329722150064 -0.0143017220592  0.
0.0310239043563 -0.0171067130494  0.
0.0287604722616 -0.0199815372424  0.
0.0263187702202 -0.0228627787568  0.
0.0238255681291 -0.0256769379626  0.
0.0214197953167 -0.0283438764495  0.
0.0173059181066 -0.044410156819  0.
0.0193848332146 -0.0332526690254  0.
0.0192942903701 -0.0353442882993  0.
0.0191459213107 -0.037146907902  0.
0.0189630558957 -0.0386896634849  0.
0.0187552154129 -0.0400019392229  0.
0.0185252635293 -0.0411154915454  0.
0.0182731468179 -0.0420658268005  0.
0.0179967314123 -0.0428937311766  0.
0.0176882339393 -0.0436492849699  0.
0.023019632499 -0.0340493699405  0.
0.0177921193206 -0.0438739067735  0.
0.0183731330007 -0.043198469057  0.
0.0190214972176 -0.0424018762375  0.
0.0196947899642 -0.0414877817  0.
0.0203619013998 -0.0404630699839  0.
0.020999563045 -0.039337217252  0.
0.0215918405016 -0.0381211154188  0.
0.022128878741 -0.03682631488  0.
0.0226054996566 -0.0354647365389  0.
0.0255296383338 -0.0331596358489  0.
0.0279894247607 -0.0318602176711  0.
0.0302995715308 -0.030095413605  0.
0.0323475048869 -0.0278128402176  0.
0.0340153830928 -0.0249912651753  0.
0.03518988054 -0.0216660376602  0.
0.0357683744206 -0.017936698255  0.
0.035643983825 -0.0139379789216  0.
0.0346814687021 -0.00979557027553  0.
0.0354346895516 -0.0113771542261  0.
0.0356072355955 -0.0156485034148  0.
0.0352231525308 -0.0196921533776  0.
0.0343368470933 -0.0234061766854  0.
0.0330127485375 -0.026678740341  0.
0.031326891612 -0.0294358519401  0.
0.0293627615586 -0.0316565036695  0.
0.0272050590104 -0.0333669077  0.
0.0249307164748 -0.0346187565533  0.
0.0352244220815 -0.0134920891924  0.
0.0349090182528 -0.0177028482853  0.
0.0342269230942 -0.0216733294809  0.
0.033174474929 -0.0252787147544  0.
0.0317984221408 -0.0284284340096  0.
0.0301563402222 -0.031067748529  0.
0.0283117561903 -0.0331885770702  0.
0.0263259840845 -0.034821655395  0.
0.0242513733769 -0.0360179092047  0.
0.0342324471993 -0.0158896131836  0.
0.0336977000885 -0.0199739740793  0.
0.0328644071273 -0.0237870102061  0.
0.0317530273948 -0.0272189462018  0.
0.0303998656443 -0.0301949037054  0.
0.0288519972271 -0.0326783191881  0.
0.0271582225705 -0.0346721588872  0.
0.0253628487488 -0.0362111779182  0.
0.0235000806276 -0.0373453978861  0.
0.0326743880619 -0.0184456928269  0.
0.0320652054132 -0.0223558600462  0.
0.0312003174364 -0.0259588640804  0.
0.0301142890942 -0.0291706335441  0.
0.0288455210544 -0.0319373631681  0.
0.0274338891901 -0.0342386193727  0.
0.0259176514263 -0.0360872529408  0.
0.0243282258507 -0.0375212639928  0.
0.0226861759813 -0.0385897561169  0.
0.0307129166685 -0.0210799211713  0.
0.0301183316076 -0.0247695656362  0.
0.0293027063468 -0.0281231886019  0.
0.0283074560627 -0.0310834757501  0.
0.0271710912001 -0.0336177425835  0.
0.0259290058007 -0.0357207665832  0.
0.0246112794767 -0.0374138217885  0.
0.0232393636675 -0.0387374642983  0.
0.0218234260313 -0.0397396183937  0.
0.0284835737126 -0.0237251225768  0.
0.0279604180825 -0.0271501931239  0.
0.0272489046662 -0.0302239925481  0.
0.0263900918735 -0.0329123484812  0.
0.0254206735939 -0.0352011804696  0.
0.0243718207938 -0.0370983847612  0.
0.0232670742741 -0.0386323123857  0.
0.0221198091892 -0.0398453331814  0.
0.0209318707986 -0.0407837322321  0.
0.0261088433332 -0.0263177502218  0.
0.0256947053628 -0.0294408632204  0.
0.0251218479068 -0.0322131301176  0.
0.0244275507175 -0.0346180206488  0.
0.0236459072187 -0.0366565114806  0.
0.0228039908949 -0.0383471513944  0.
0.0219198557549 -0.0397238655355  0.
0.0210000916825 -0.0408303565568  0.
0.0200389345134 -0.0417108946754  0.
0.0237100735777 -0.0287962352703  0.
0.0234272794514 -0.0315922714406  0.
0.023008318408 -0.034050378794  0.
0.0224901120202 -0.0361673049607  0.
0.0219041680605 -0.0379567351619  0.
0.0212730835586 -0.0394451722466  0.
0.020610027883 -0.0406703353087  0.
0.0199167493624 -0.0416772301426  0.
0.0191796322088 -0.0425094143339  0.
0.0214216143276 -0.0311102669041  0.
0.0212649067884 -0.0335678233534  0.
0.0209936206993 -0.035703700285  0.
0.0206484285688 -0.0375327926478  0.
0.0202553658357 -0.0390787604005  0.
0.0198303890236 -0.0403731979368  0.
0.019381292023 -0.0414550155017  0.
0.0189072257514 -0.042369016014  0.
0.0183929782752 -0.0431632223597  0.
0.0236638086637 -0.0311281762765  0.
0.0233733266646 -0.0325933902336  0.
0.0330202606884 -0.00765085178863  0.
0.032755994549 -0.00657633484725  0.
0.0349131748546 -0.0109966297327  0.
0.0361538543182 -0.0143026934989  0.
0.0366658444803 -0.0175117190236  0.
0.0363578816248 -0.0205108050936  0.
0.0352808348723 -0.0232012983839  0.
0.0335616217884 -0.0255129701038  0.
0.0313624474293 -0.0274240189382  0.
0.0288509858217 -0.0289630886549  0.
0.0262181444822 -0.0301835410728  0.
0.0259271025866 -0.0316977605224  0.
0.0284675555656 -0.0304472267547  0.
0.0308624670302 -0.0287931253056  0.
0.0329692084104 -0.0266868150219  0.
0.0346463053294 -0.0241048612015  0.
0.0357656108326 -0.0210768208064  0.
0.0362213178895 -0.0176916132857  0.
0.0359421575772 -0.0140871517138  0.
0.0348688360688 -0.0103852394305  0.
0.0 0.0  0.
0.0 0.019438838766  0.
0.0 0.00822159870627  0.
0.0153973709409 0.0111410689108  0.
0.0256112615373 0.00268277674458  0.
0.0203144144703 -0.00362753513277  0.
0.0293717993193 -0.00513540610357  0.
0.018245066985 0.00389792668001  0.
0.0278866947271 -0.00150199588543  0.
0.0 0.0  0.
0.0 0.0  0.
0.0 0.0  0.
0.0 0.0  0.
0.0 0.0  0.
0.0 0.0  0.
0.0 0.0  0.
0.0 0.0  0.
0.0 0.0  0.
0.0 0.0  0.
0.0201635297703 -0.0267480431742  0.
0.0127095816344 -0.0174495989164  0.
0.0169387255009 -0.0158859415973  0.
0.0236136035681 -0.0254238976936  0.
0.02006059783 -0.0151519154431  0.
0.0268739330872 -0.0241933018377  0.
0.0227409815298 -0.0144737213221  0.
0.0297934588707 -0.0228917245751  0.
0.0249922238338 -0.0137222392872  0.
0.0322856017337 -0.0213307840751  0.
0.0267143593574 -0.0128370605218  0.
0.034171464571 -0.0194482991401  0.
0.0277712501244 -0.0117962747006  0.
0.0352618196681 -0.0172423811869  0.
0.0280202166477 -0.0105811410804  0.
0.0354026130833 -0.0147417329399  0.
0.0272815036379 -0.00911954446438  0.
0.0344907892199 -0.0119553572576  0.
0.0252179533736 -0.00722095790841  0.
0.0323872682632 -0.00873277417296  0.
0.0 -0.0483238763562  0.
0.0 -0.00544007395089  0.
0.0 -0.0106655149133  0.
0.0 -0.0156581380277  0.
0.0 -0.0204066341002  0.
0.0 -0.024899397033  0.
0.0 -0.0291236284584  0.
0.0 -0.0330662944196  0.
0.0 -0.0367158596747  0.
0.0 -0.0400645586111  0.
0.0 -0.0431109552682  0.
0.0 -0.0458622921466  0.
0.0103242580801 -0.0449514006897  0.
0.0153239398071 -0.0450439692129  0.
0.0127021602032 -0.0204063506892  0.
0.0126328776959 -0.0232925372757  0.
0.0125287729151 -0.0260769965813  0.
0.0123879341343 -0.0287519808568  0.
0.0122043123495 -0.0313103596246  0.
0.0119747513133 -0.0337412614614  0.
0.0117017851466 -0.0360303576902  0.
0.011395692654 -0.0381617564558  0.
0.0110762162444 -0.0401211162296  0.
0.0107732280499 -0.0418999849732  0.
0.0105250555361 -0.043500856264  0.
0.0198954929865 -0.028801439376  0.
0.0196446070275 -0.0307378629791  0.
0.0193582161611 -0.0326051191534  0.
0.0190195435336 -0.0344060805573  0.
0.0186226957485 -0.0361321768197  0.
0.0181677663593 -0.0377708626047  0.
0.0176613219595 -0.0393075200239  0.
0.0171182098897 -0.0407268197528  0.
0.016563392241 -0.0420147928564  0.
0.0160333948617 -0.0431617881179  0.
0.0155766687559 -0.0441667794051  0.
</DataArray>
<DataArray type="Float64" Name="stresses" NumberOfComponents="4" format="ascii" >
-66873.8281218 -35211.4328314 -50021.777867 15755.858706  
-36612.1301868 -36840.1861622 -35991.635011 1982.48612694  
23309.460048 33052.3997075 27617.3112802 22531.4059867  
13305.791049 14470.5991332 13610.4311893 14782.0765413  
15621.8860266 12976.5067698 14013.2124702 10210.571519  
13356.4821691 8814.89541724 10863.9750173 7167.43821555  
7942.45429805 2589.0444782 5160.43440036 5031.73256647  
672.587407694 -4725.44448812 -1985.89996941 3486.0874403  
-6841.03994672 -11561.6426994 -9017.31449662 2367.97514529  
-12757.2844242 -15945.4876965 -14064.3583391 1666.40445747  
-20129.1114577 -20935.092161 -20121.4597732 1824.25749012  
-16574.5882085 -30126.0180031 -22883.2970437 -66.169210974  
-28279.1961726 -30052.2677892 -28582.4173413 1626.3470745  
-30012.5264656 -34544.0746528 -31632.734548 506.111533303  
-31720.0502835 -37603.8257874 -33968.6992747 -373.07716974  
-30762.0768774 -37432.9949813 -33415.5852107 -922.625291599  
-28147.5569827 -35362.4915515 -31119.9237818 -1175.93766766  
-24867.0921424 -32556.0897449 -28137.3591248 -1174.00063475  
-21784.2420617 -29983.389819 -25366.1396215 -930.666203439  
-19505.0414425 -28384.0429335 -23465.6513443 -402.726883245  
-15806.044749 -25986.6936155 -20478.4417986 584.184702726  
-35790.0119092 -72165.6251665 -52898.2621671 333.218936516  
8172.81909462 -8165.13052844 3.76739742544 -902.10829106  
3944.44495983 -15632.7925707 -5727.29032934 -1727.21101702  
1156.90094545 -21442.1301323 -9939.76230154 -2163.32595253  
-2405.24599905 -27857.9310213 -14828.95674 -2261.28416539  
-6621.22364177 -34686.1331448 -20240.6048254 -2112.06715701  
-11427.437139 -41812.8094491 -26087.7208282 -1782.52913202  
-16801.2241787 -49189.46257 -32335.4365069 -1329.22638223  
-22708.288239 -56770.7236256 -38944.7158136 -799.045578493  
-29023.8782879 -64419.9492534 -45787.4754953 -231.304154161  
-45986.496738 -81902.162469 -62665.4430114 746.381762802  
-46690.3180979 -81265.3299395 -62698.2675383 1704.84052752  
-47990.2901548 -79795.4036613 -62614.9899699 2854.57285289  
-50195.4123981 -77687.8811284 -62662.813828 4298.49330266  
-53809.2968707 -75461.9563061 -63342.9140566 6021.42637587  
-59279.7894702 -73688.1533741 -65154.2919937 7919.89051262  
-68133.5543244 -73999.1966993 -69645.0480016 9876.28458811  
-82645.2145806 -78537.5963422 -78979.5773521 11794.6502975  
-107828.350119 -90889.3292295 -97371.6628808 14141.7796416  
1981.17444156 7741.0773519 4763.9033788 16006.4441644  
-25422.4880587 -27919.1648882 -26137.409944 12498.2817543  
-30755.5124996 -41124.6099454 -35221.259998 10086.5790035  
-32603.3305891 -49840.0964533 -40397.2792507 7911.19334787  
-33386.3178979 -56431.9004814 -44010.9270059 5863.9597293  
-34205.5377551 -61909.0218162 -47096.1341899 4015.38597541  
-35251.5245026 -66406.9687237 -49812.6616809 2455.61480106  
-36372.0149891 -69814.1504034 -52031.2210424 1215.13392592  
-37414.4724934 -72108.1764978 -53666.0980057 227.922376617  
-11530.6515048 -14064.7459383 -12541.7447471 12399.4873463  
-19224.246468 -27555.2398988 -22921.9483197 10319.1890191  
-24432.1642486 -38597.9454836 -30884.7537688 8463.91678535  
-26056.8009671 -45581.4057615 -35102.721297 6635.21744165  
-26899.8766582 -50955.9951413 -38149.3771817 4836.10561243  
-27708.9251844 -55371.9154957 -40709.6119333 3169.14962546  
-28712.9829448 -59038.7116241 -42998.3303387 1743.21273354  
-29794.8296956 -61919.1065997 -44939.8287847 607.046409477  
-30815.2500764 -64022.9205619 -46470.7036128 -281.072199596  
-13572.9039266 -20063.0244935 -16481.6049259 9231.88898134  
-16685.7115377 -28364.3068776 -22074.5090235 8199.06601168  
-18608.7453251 -35019.1892674 -26277.6879503 6828.07499455  
-20057.7063048 -40724.7614796 -29783.4092143 5297.72094726  
-20876.559671 -45102.114786 -32329.5504839 3731.47947748  
-21716.8286436 -48728.0571554 -34517.9940415 2263.17793592  
-22693.5623488 -51744.1432876 -36474.4757618 1007.44998846  
-23713.9696156 -54171.0644082 -38163.6666717 18.0349452635  
-24573.3447875 -55975.8911878 -39469.1256279 -737.791352746  
-11784.1794898 -20017.5974825 -15582.8707164 6787.54759918  
-13326.9605749 -26480.0034313 -19505.4123631 6216.69406681  
-14104.0927602 -31376.0181629 -22285.2543523 5205.03667093  
-14845.7007137 -35611.8567336 -24724.2031492 3941.88610498  
-15538.453169 -39126.7774964 -26785.963026 2608.32243072  
-16289.440347 -42032.5389343 -28577.7698478 1354.39602298  
-17165.0827346 -44470.1286408 -30201.2535739 294.548536347  
-18046.8104103 -46467.2752831 -31611.9019898 -520.357567624  
-18709.3634123 -47989.3151546 -32682.3524978 -1119.55148246  
-8849.75694288 -17479.5605605 -12901.3655767 4901.32151015  
-9692.22280355 -22967.6874653 -16003.3560318 4507.74955631  
-10028.4996868 -26980.6628221 -18134.4896293 3705.07214036  
-10400.2946683 -30301.5469738 -19943.9024046 2661.22305868  
-10828.9950268 -33006.7907411 -21479.5350263 1547.41667593  
-11391.5801431 -35252.7912889 -22855.7420017 512.443833119  
-12063.7876716 -37141.0436456 -24110.3673454 -337.134632023  
-12738.6448724 -38741.690826 -25225.3644922 -958.488566742  
-13209.9797105 -40050.2377265 -26097.5065441 -1382.85014166  
-5523.16840667 -13585.9237196 -9363.45514187 3461.96657953  
-6227.11230702 -18575.272508 -12153.1685594 3106.5932227  
-6418.75729376 -22062.8100864 -13955.9680163 2424.31876364  
-6518.10028021 -24693.7286013 -15293.7961519 1547.76332906  
-6666.72555215 -26711.8115029 -16355.483157 630.806735334  
-6944.99158149 -28328.8318698 -17284.1734911 -191.184167781  
-7314.78384931 -29678.696606 -18126.8054231 -823.556448881  
-7709.71512166 -30904.1537389 -18920.7957417 -1235.98053038  
-8004.96482317 -32088.9035144 -19645.9954854 -1470.5043865  
-2419.22037685 -9114.1013336 -5651.32763812 2420.18015217  
-3388.13415862 -13951.4341511 -8496.38847176 2054.90242  
-3376.77775634 -16895.1842083 -9933.26136267 1434.9867178  
-3085.11148982 -18795.3283494 -10721.4155212 679.904386678  
-2915.29211658 -20177.5432232 -11315.4893165 -68.7030930451  
-2879.31564742 -21222.7888208 -11810.0311894 -690.436553943  
-2851.10841177 -22015.2511167 -12184.5161689 -1104.1331484  
-2812.40798836 -22786.2711552 -12543.3527803 -1290.49347419  
-2921.42742922 -23926.1734257 -13155.3244189 -1313.75009277  
-1014.75896967 -5634.45887187 -3258.11674235 1829.55424904  
-1787.01063294 -9904.92175864 -5729.04687187 1412.87118717  
-678.336229551 -11442.1769987 -5939.05148183 790.653119443  
147.071586297 -12493.7562382 -6049.87547941 109.422356172  
617.535159955 -13296.3737925 -6212.63092995 -497.152827308  
880.859814379 -13905.1019742 -6381.87865829 -932.976468728  
1222.54779472 -14260.7971075 -6388.74216327 -1132.97473893  
2043.56856623 -14251.6020018 -5981.93638345 -1078.2197419  
2770.97907079 -14782.9850192 -5885.88291472 -840.182170971  
-5037.91402543 -7202.03172138 -5997.57341593 1864.55791461  
-118.034952584 -5487.89666798 -2746.90649408 1207.66463009  
2623.95094786 -4991.68727339 -1160.19079951 470.94129571  
3798.83691865 -5293.4163532 -732.343922927 -170.147663229  
4211.12788412 -5862.61152605 -809.226984545 -639.049265927  
4293.67959943 -6476.47709342 -1069.57077206 -894.109613966  
4479.11978944 -6895.26597418 -1183.91163052 -901.827444752  
5578.1691614 -6563.13777097 -482.634618694 -627.099582153  
9298.26566729 -4268.7744717 2464.45068584 -78.4347331726  
-48501.7006718 -85652.5919362 -65735.6033779 1174.32463497  
-40102.4544915 -76997.2859861 -57378.872834 840.35667926  
15384.7771259 43939.0921647 29068.6959524 9492.30795181  
-1068.79258254 31133.7585055 14731.8333022 10324.7080861  
-26962.8349471 -6484.10678054 -16389.0014466 10710.5856273  
-34375.1169379 -23684.5015319 -28449.2130502 10484.6188977  
-41898.1807632 -42134.1094018 -41175.8221808 9762.63379836  
-45209.1613567 -56429.1884666 -49802.7914134 8677.94470873  
-47513.3653538 -68457.3497864 -56825.6504187 7289.08038689  
-49870.2533867 -78569.7167583 -62935.5853711 5725.48758879  
-52546.1064823 -86769.3690374 -68264.5830046 4165.86865894  
-57329.4020105 -94743.7596182 -74515.8491981 2812.44533921  
-63159.7628698 -101180.126644 -80526.5458618 1806.47432748  
-53442.3055429 -90510.8238422 -70537.0333987 1290.5221178  
-54052.1090048 -90057.5535554 -70613.7346545 1982.4045215  
-54047.6212467 -87082.6621143 -69153.8388469 2742.71801295  
-54381.7414336 -82514.5552819 -67079.1853906 3791.99714948  
-55033.9295793 -76431.0302673 -64417.8303248 5166.25949068  
-55179.7834906 -68218.2992397 -60465.0605378 6841.01635285  
-54771.9474964 -58216.5958437 -55364.3862366 8715.9882101  
-55762.6581883 -48776.3797482 -51224.1285888 10548.0417262  
-75151.8248954 -56399.2009276 -64460.0026532 11824.5042978  
-149993.922976 -141215.235935 -142692.487867 6719.22409637  
-69118.3830851 -47335.241577 -57062.2760844 3468.87947821  
-157472.911734 -135107.880688 -143364.588287 3809.48128125  
-30531.1365868 -3153.82177917 -16505.6295993 2541.175845  
-32697.3819557 4424.79584881 -13853.5671924 4486.63863224  
-146619.009011 -119357.418895 -130328.449674 5752.95889204  
-74023.5000962 -42870.9049361 -57278.2584658 7172.71298084  
-92148.489883 -61972.5425509 -75519.3058926 4046.09462689  
-63653.7196417 -27394.2455839 -44613.5029605 5963.43428397  
-304620.304315 -328351.788418 -310156.325439 4851.42346763  
-341697.953776 -354108.318008 -340945.073174 7249.6711403  
-324809.581009 -336854.341882 -324215.322217 8490.92620209  
-309279.158502 -320872.001489 -308774.068396 9542.45508502  
-291979.821885 -303066.860138 -291572.874191 10421.3039026  
-271538.382922 -282040.717099 -271253.759011 11094.3539513  
-247484.797853 -257313.271149 -247351.053811 11514.3839952  
-219440.809316 -228499.942629 -219490.968453 11628.4650674  
-185843.117795 -194014.273236 -186130.121605 11368.887448  
-142279.822104 -149543.405338 -142993.381447 10608.9409045  
-88146.3113854 -125319.860068 -104598.424012 1838.48479801  
-158202.410127 -190298.128335 -170765.263847 2654.9478414  
-146310.448326 -173780.59704 -156844.612229 4314.60557529  
-88339.5272483 -124430.966149 -104257.541765 2447.19545455  
-154823.230856 -177985.200601 -163076.131414 5970.40190836  
-82196.2328329 -115272.156748 -96759.5108944 3800.316551  
-157604.730379 -178330.24625 -164608.138548 7634.57970593  
-83705.1376214 -113094.309044 -96431.728866 5630.29490508  
-159348.867144 -177365.857433 -164990.215043 9103.16885116  
-86734.4703898 -111267.031994 -97020.7361682 7527.66255489  
-161362.804026 -176013.59883 -165314.437399 10205.611691  
-91457.6821641 -109451.696576 -98445.5955827 9059.04544508  
-164185.505032 -174700.390495 -166054.088808 10757.157568  
-97135.8080264 -106986.043336 -100019.707168 9874.85430434  
-168615.933108 -174112.238815 -167936.804242 10627.9809478  
-102532.280417 -102973.405918 -100697.786304 9793.72133584  
-176962.350861 -176055.349219 -172978.673039 9698.81773652  
-106608.832065 -96342.836022 -99446.3173626 8930.87046008  
-196085.47409 -183536.113599 -186014.577967 7762.07013506  
-96282.8153226 -75106.7429114 -83980.8835347 7710.42165503  
4235.02562535 -15389.3512387 -5465.61955055 1627.39413492  
-225127.152518 -258638.562804 -237045.200508 4061.67068117  
-204663.956771 -237170.96596 -216499.112138 3733.27621113  
-183477.649407 -214901.084981 -195205.579851 3403.579102  
-162006.52834 -192267.56665 -173594.306545 3085.4664744  
-140326.036559 -169337.95296 -151735.354864 2782.57104793  
-118434.309653 -146107.478937 -129625.476409 2499.42205604  
-96328.0662954 -122580.405429 -107265.151145 2243.06180826  
-74022.0716216 -98793.0503652 -84679.4097736 2022.26240357  
-51550.1934654 -74817.2445692 -61920.0446369 1845.70136309  
-28952.8746258 -50747.8065907 -39053.3337961 1719.42398212  
-5599.41834232 -25991.9218947 -15479.7567162 1648.05043444  
4132.08738565 -15184.9909185 -5415.9227311 126.898567161  
-3307.79371826 -20630.990416 -11730.0042258 -654.919631662  
-153259.200319 -185863.98718 -166170.361874 2559.7916583  
-137060.682151 -169152.404874 -150044.412642 2206.41952164  
-121387.353827 -152676.383998 -134291.231535 1849.76931874  
-105913.896956 -136293.769709 -118681.756666 1478.42452887  
-90564.1719044 -119915.19283 -103134.88872 1093.16972556  
-75323.7041534 -103481.936214 -87614.7637801 709.316375018  
-60195.7210484 -86965.9393212 -72109.2135811 355.944128777  
-45191.6260679 -70379.0092995 -56629.61133 74.3834210986  
-30327.3776305 -53784.7566887 -41214.9458164 -86.4457512386  
-15605.7731663 -37293.4419162 -25920.6153904 -80.3258226037  
-1325.94200553 -21418.9781525 -11145.0108775 35.9640939649  
-87831.5780226 -123747.027739 -103673.516823 1556.79130679  
-78050.8802782 -112516.986281 -93378.2546141 1038.09825238  
-68773.9671625 -102262.817718 -83808.0245915 500.284656463  
-59585.8685284 -92041.9764336 -74297.6440314 -72.091675933  
-50396.4532186 -81617.5644507 -64686.868658 -654.501943503  
-41223.879915 -70946.225086 -54963.3514505 -1210.20536939  
-32108.2791716 -60037.9698628 -45151.6620268 -1689.99736333  
-23086.759836 -48934.1650074 -35290.2531733 -2031.32621019  
-14187.8499631 -37718.0417033 -25433.8869165 -2160.43086507  
-5503.00058669 -26605.5688686 -15733.1990331 -1998.94122505  
1772.25651249 -16988.7674308 -7456.09034999 -1299.60474768  
</DataArray>
<DataArray type="Float64" Name="equivalent_strain" NumberOfComponents="1" format="ascii" >
0.0  
0.0  
0.0  
0.0  
0.0  
0.0  
0.0  
0.0  
0.0  
0.0  
0.0  
0.0  
0.0  
0.0  
0.0  
0.0  
0.0  
0.0  
0.0  
0.0  
0.0  
0.0  
0.0  
0.0  
0.0  
0.0  
0.0  
0.0  
0.0  
0.0  
0.0  
0.0  
0.0  
0.0  
0.0  
0.0  
0.0  
0.0  
0.0  
0.0  
0.0  
0.0  
0.0  
0.0  
0.0  
0.0  
0.0  
0.0  
0.0  
0.0  
0.0  
0.0  
0.0  
0.0  
0.0  
0.0  
0.0  
0.0  
0.0  
0.0  
0.0  
0.0  
0.0  
0.0  
0.0  
0.0  
0.0  
0.0  
0.0  
0.0  
0.0  
0.0  
0.0  
0.0  
0.0  
0.0  
0.0  
0.0  
0.0  
0.0  
0.0  
0.0  
0.0  
0.0  
0.0  
0.0  
0.0  
0.0  
0.0  
0.0  
0.0  
0.0  
0.0  
0.0  
0.0  
0.0  
0.0  
0.0  
0.0  
0.0  
0.0  
0.0  
0.0  
0.0  
0.0  
0.0  
0.0  
0.0  
0.0  
0.0  
0.0  
0.0  
0.0  
0.0  
0.0  
0.0  
0.0  
0.0  
0.0  
0.0  
0.0  
0.0  
0.0  
0.0  
0.0  
0.0  
0.0  
0.0  
0.0  
0.0  
0.0  
0.0  
0.0  
0.0  
0.0  
0.0  
0.0  
0.0  
0.0  
0.0  
0.0  
0.0  
0.0  
0.0  
0.0  
0.0  
0.0  
0.0  
0.0  
0.0  
0.0  
0.0  
0.0  
0.0  
0.0  
0.0  
0.0  
0.0  
0.0  
0.0  
0.0  
0.0  
0.0  
0.0  
0.0  
0.0  
0.0  
0.0  
0.0  
0.0  
0.0  
0.0  
0.0  
0.0  
0.0  
0.0  
0.0  
0.0  
0.0  
0.0  
0.0  
0.0  
0.0  
0.0  
0.0  
0.0  
0.0  
0.0  
0.0  
0.0  
0.0  
0.0  
0.0  
0.0  
0.0  
0.0  
0.0  
0.0  
0.0  
0.0  
0.0  
0.0  
0.0  
0.0  
0.0  
0.0  
0.0  
0.0  
0.0  
0.0  
0.0  
0.0  
0.0  
0.0  
0.0  
0.0  
0.0  
0.0  
</DataArray>
</PointData>
<CellData>
</CellData>
<Points>
<DataArray type="Float64" Name="Points" NumberOfComponents="3" format="ascii">
45.0 30.0 0.0
35.0 40.0 0.0
44.0 31.0 0.0
43.0 32.0 0.0
42.0 33.0 0.0
41.0 34.0 0.0
40.0 35.0 0.0
39.0 36.0 0.0
38.0 37.0 0.0
37.0 38.0 0.0
36.0 39.0 0.0
25.0 40.0 0.0
34.0 40.0 0.0
33.0 40.0 0.0
32.0 40.0 0.0
31.0 40.0 0.0
30.0 40.0 0.0
29.0 40.0 0.0
28.0 40.0 0.0
27.0 40.0 0.0
26.0 40.0 0.0
25.0 30.0 0.0
25.0 39.0 0.0
25.0 38.0 0.0
25.0 37.0 0.0
25.0 36.0 0.0
25.0 35.0 0.0
25.0 34.0 0.0
25.0 33.0 0.0
25.0 32.0 0.0
25.0 31.0 0.0
27.0 30.0 0.0
29.0 30.0 0.0
31.0 30.0 0.0
33.0 30.0 0.0
35.0 30.0 0.0
37.0 30.0 0.0
39.0 30.0 0.0
41.0 30.0 0.0
43.0 30.0 0.0
42.1 31.0 0.0
40.2 31.0 0.0
38.3 31.0 0.0
36.4 31.0 0.0
34.5 31.0 0.0
32.6 31.0 0.0
30.7 31.0 0.0
28.8 31.0 0.0
26.9 31.0 0.0
41.2 32.0 0.0
39.4 32.0 0.0
37.6 32.0 0.0
35.8 32.0 0.0
34.0 32.0 0.0
32.2 32.0 0.0
30.4 32.0 0.0
28.6 32.0 0.0
26.8 32.0 0.0
40.3 33.0 0.0
38.6 33.0 0.0
36.9 33.0 0.0
35.2 33.0 0.0
33.5 33.0 0.0
31.8 33.0 0.0
30.1 33.0 0.0
28.4 33.0 0.0
26.7 33.0 0.0
39.4 34.0 0.0
37.8 34.0 0.0
36.2 34.0 0.0
34.6 34.0 0.0
33.0 34.0 0.0
31.4 34.0 0.0
29.8 34.0 0.0
28.2 34.0 0.0
26.6 34.0 0.0
38.5 35.0 0.0
37.0 35.0 0.0
35.5 35.0 0.0
34.0 35.0 0.0
32.5 35.0 0.0
31.0 35.0 0.0
29.5 35.0 0.0
28.0 35.0 0.0
26.5 35.0 0.0
37.6 36.0 0.0
36.2 36.0 0.0
34.8 36.0 0.0
33.4 36.0 0.0
32.0 36.0 0.0
30.6 36.0 0.0
29.2 36.0 0.0
27.8 36.0 0.0
26.4 36.0 0.0
36.7 37.0 0.0
35.4 37.0 0.0
34.1 37.0 0.0
32.8 37.0 0.0
31.5 37.0 0.0
30.2 37.0 0.0
28.9 37.0 0.0
27.6 37.0 0.0
26.3 37.0 0.0
35.8 38.0 0.0
34.6 38.0 0.0
33.4 38.0 0.0
32.2 38.0 0.0
31.0 38.0 0.0
29.8 38.0 0.0
28.6 38.0 0.0
27.4 38.0 0.0
26.2 38.0 0.0
34.9 39.0 0.0
33.8 39.0 0.0
32.7 39.0 0.0
31.6 39.0 0.0
30.5 39.0 0.0
29.4 39.0 0.0
28.3 39.0 0.0
27.2 39.0 0.0
26.1 39.0 0.0
25.0 28.0 0.0
25.0 29.0 0.0
45.0 28.0 0.0
45.0 29.0 0.0
43.0 28.0 0.0
41.0 28.0 0.0
39.0 28.0 0.0
37.0 28.0 0.0
35.0 28.0 0.0
33.0 28.0 0.0
31.0 28.0 0.0
29.0 28.0 0.0
27.0 28.0 0.0
27.0 29.0 0.0
29.0 29.0 0.0
31.0 29.0 0.0
33.0 29.0 0.0
35.0 29.0 0.0
37.0 29.0 0.0
39.0 29.0 0.0
41.0 29.0 0.0
43.0 29.0 0.0
75.0 0.0 0.0
75.0 30.0 0.0
75.0 15.0 0.0
57.8571428571 30.0 0.0
49.2857142857 30.0 0.0
57.8571428571 16.0 0.0
49.2857142857 24.0 0.0
57.8571428571 23.0 0.0
49.2857142857 27.0 0.0
0.0 0.0 0.0
7.5 0.0 0.0
15.0 0.0 0.0
22.5 0.0 0.0
30.0 0.0 0.0
37.5 0.0 0.0
45.0 0.0 0.0
52.5 0.0 0.0
60.0 0.0 0.0
67.5 0.0 0.0
21.4285714286 24.0 0.0
14.2857142857 16.0 0.0
18.6428571429 16.0 0.0
24.2142857143 24.0 0.0
23.0 16.0 0.0
27.0 24.0 0.0
27.3571428571 16.0 0.0
29.7857142857 24.0 0.0
31.7142857143 16.0 0.0
32.5714285714 24.0 0.0
36.0714285714 16.0 0.0
35.3571428571 24.0 0.0
40.4285714286 16.0 0.0
38.1428571429 24.0 0.0
44.7857142857 16.0 0.0
40.9285714286 24.0 0.0
49.1428571429 16.0 0.0
43.7142857143 24.0 0.0
53.5 16.0 0.0
46.5 24.0 0.0
0.0 40.0 0.0
0.0 3.33333333333 0.0
0.0 6.66666666667 0.0
0.0 10.0 0.0
0.0 13.3333333333 0.0
0.0 16.6666666667 0.0
0.0 20.0 0.0
0.0 23.3333333333 0.0
0.0 26.6666666667 0.0
0.0 30.0 0.0
0.0 33.3333333333 0.0
0.0 36.6666666667 0.0
14.2857142857 40.0 0.0
21.4285714286 40.0 0.0
14.2857142857 18.0 0.0
14.2857142857 20.0 0.0
14.2857142857 22.0 0.0
14.2857142857 24.0 0.0
14.2857142857 26.0 0.0
14.2857142857 28.0 0.0
14.2857142857 30.0 0.0
14.2857142857 32.0 0.0
14.2857142857 34.0 0.0
14.2857142857 36.0 0.0
14.2857142857 38.0 0.0
21.4285714286 25.3333333333 0.0
21.4285714286 26.6666666667 0.0
21.4285714286 28.0 0.0
21.4285714286 29.3333333333 0.0
21.4285714286 30.6666666667 0.0
21.4285714286 32.0 0.0
21.4285714286 33.3333333333 0.0
21.4285714286 34.6666666667 0.0
21.4285714286 36.0 0.0
21.4285714286 37.3333333333 0.0
21.4285714286 38.6666666667 0.0
</DataArray>
</Points>
<Cells>
<DataArray type="Int64" Name="connectivity" format="ascii">
0 2 40 39 
2 3 49 40 
3 4 58 49 
4 5 67 58 
5 6 76 67 
6 7 85 76 
7 8 94 85 
8 9 103 94 
9 10 112 103 
10 1 12 112 
39 40 41 38 
40 49 50 41 
49 58 59 50 
58 67 68 59 
67 76 77 68 
76 85 86 77 
85 94 95 86 
94 103 104 95 
103 112 113 104 
112 12 13 113 
38 41 42 37 
41 50 51 42 
50 59 60 51 
59 68 69 60 
68 77 78 69 
77 86 87 78 
86 95 96 87 
95 104 105 96 
104 113 114 105 
113 13 14 114 
37 42 43 36 
42 51 52 43 
51 60 61 52 
60 69 70 61 
69 78 79 70 
78 87 88 79 
87 96 97 88 
96 105 106 97 
105 114 115 106 
114 14 15 115 
36 43 44 35 
43 52 53 44 
52 61 62 53 
61 70 71 62 
70 79 80 71 
79 88 89 80 
88 97 98 89 
97 106 107 98 
106 115 116 107 
115 15 16 116 
35 44 45 34 
44 53 54 45 
53 62 63 54 
62 71 72 63 
71 80 81 72 
80 89 90 81 
89 98 99 90 
98 107 108 99 
107 116 117 108 
116 16 17 117 
34 45 46 33 
45 54 55 46 
54 63 64 55 
63 72 73 64 
72 81 82 73 
81 90 91 82 
90 99 100 91 
99 108 109 100 
108 117 118 109 
117 17 18 118 
33 46 47 32 
46 55 56 47 
55 64 65 56 
64 73 74 65 
73 82 83 74 
82 91 92 83 
91 100 101 92 
100 109 110 101 
109 118 119 110 
118 18 19 119 
32 47 48 31 
47 56 57 48 
56 65 66 57 
65 74 75 66 
74 83 84 75 
83 92 93 84 
92 101 102 93 
101 110 111 102 
110 119 120 111 
119 19 20 120 
31 48 30 21 
48 57 29 30 
57 66 28 29 
66 75 27 28 
75 84 26 27 
84 93 25 26 
93 102 24 25 
102 111 23 24 
111 120 22 23 
120 20 11 22 
121 133 134 122 
133 132 135 134 
132 131 136 135 
131 130 137 136 
130 129 138 137 
129 128 139 138 
128 127 140 139 
127 126 141 140 
126 125 142 141 
125 123 124 142 
122 134 31 21 
134 135 32 31 
135 136 33 32 
136 137 34 33 
137 138 35 34 
138 139 36 35 
139 140 37 36 
140 141 38 37 
141 142 39 38 
142 124 0 39 
143 145 150 148 
145 144 146 150 
148 150 151 149 
150 146 147 151 
149 151 124 123 
151 147 0 124 
152 153 164 163 
153 154 166 164 
154 155 168 166 
155 156 170 168 
156 157 172 170 
157 158 174 172 
158 159 176 174 
159 160 178 176 
160 161 180 178 
161 143 148 180 
163 164 165 162 
164 166 167 165 
166 168 169 167 
168 170 171 169 
170 172 173 171 
172 174 175 173 
174 176 177 175 
176 178 179 177 
178 180 181 179 
180 148 149 181 
162 165 133 121 
165 167 132 133 
167 169 131 132 
169 171 130 131 
171 173 129 130 
173 175 128 129 
175 177 127 128 
177 179 126 127 
179 181 125 126 
181 149 123 125 
152 163 196 183 
163 162 207 196 
162 121 122 207 
183 196 197 184 
196 207 208 197 
207 122 21 208 
184 197 198 185 
197 208 209 198 
208 21 30 209 
185 198 199 186 
198 209 210 199 
209 30 29 210 
186 199 200 187 
199 210 211 200 
210 29 28 211 
187 200 201 188 
200 211 212 201 
211 28 27 212 
188 201 202 189 
201 212 213 202 
212 27 26 213 
189 202 203 190 
202 213 214 203 
213 26 25 214 
190 203 204 191 
203 214 215 204 
214 25 24 215 
191 204 205 192 
204 215 216 205 
215 24 23 216 
192 205 206 193 
205 216 217 206 
216 23 22 217 
193 206 194 182 
206 217 195 194 
217 22 11 195 
</DataArray>
<DataArray type="Int64" Name="offsets" format="ascii">
4
8
12
16
20
24
28
32
36
40
44
48
52
56
60
64
68
72
76
80
84
88
92
96
100
104
108
112
116
120
124
128
132
136
140
144
148
152
156
160
164
168
172
176
180
184
188
192
196
200
204
208
212
216
220
224
228
232
236
240
244
248
252
256
260
264
268
272
276
280
284
288
292
296
300
304
308
312
316
320
324
328
332
336
340
344
348
352
356
360
364
368
372
376
380
384
388
392
396
400
404
408
412
416
420
424
428
432
436
440
444
448
452
456
460
464
468
472
476
480
484
488
492
496
500
504
508
512
516
520
524
528
532
536
540
544
548
552
556
560
564
568
572
576
580
584
588
592
596
600
604
608
612
616
620
624
628
632
636
640
644
648
652
656
660
664
668
672
676
680
684
688
692
696
700
704
708
712
716
720
724
728
732
736
740
744
748
752
756
760
764
768
</DataArray>
<DataArray type="UInt8" Name="types" format="ascii" RangeMin="9" RangeMax="9">
9
9
9
9
9
9
9
9
9
9
9
9
9
9
9
9
9
9
9
9
9
9
9
9
9
9
9
9
9
9
9
9
9
9
9
9
9
9
9
9
9
9
9
9
9
9
9
9
9
9
9
9
9
9
9
9
9
9
9
9
9
9
9
9
9
9
9
9
9
9
9
9
9
9
9
9
9
9
9
9
9
9
9
9
9
9
9
9
9
9
9
9
9
9
9
9
9
9
9
9
9
9
9
9
9
9
9
9
9
9
9
9
9
9
9
9
9
9
9
9
9
9
9
9
9
9
9
9
9
9
9
9
9
9
9
9
9
9
9
9
9
9
9
9
9
9
9
9
9
9
9
9
9
9
9
9
9
9
9
9
9
9
9
9
9
9
9
9
9
9
9
9
9
9
9
9
9
9
9
9
9
9
9
9
9
9
9
9
9
9
9
9
</DataArray>
</Cells>
</Piece>
</UnstructuredGrid>
</VTKFile>
