<?xml version="1.0"?>
<VTKFile type="UnstructuredGrid" version="0.1" byte_order="LittleEndian" compressor="vtkZLibDataCompressor">
<UnstructuredGrid>
<Piece NumberOfPoints="3789" NumberOfCells="2920">
<PointData>
<DataArray type="Float64" Name="displacement" NumberOfComponents="3" format="ascii" >
0.000129833834449 -0.000237730512443 0.000155612969872 
-0.000210797465709 -0.000172427423928 1.1653407523e-05 
0.00777629267383 0.00195821851389 -0.00822150637422 
0.00732187306838 0.00176892470513 -0.00709345828243 
0.00656984179992 0.0015694962422 -0.00606528648796 
0.000121698370635 2.54295626707e-05 -0.000286867557356 
7.43477063502e-05 -8.67112408357e-05 -7.91686126749e-06 
4.10711717689e-05 -0.00014890201759 0.000142335585016 
4.85002203354e-06 -0.000168564638959 0.000190219603632 
-2.93408401009e-05 -0.000150155489048 0.000151407306286 
0.0081176940291 0.00154088867464 -0.00858711869825 
0.00804752502214 0.00149245770149 -0.00778625526823 
0.006858413674 0.00128053589136 -0.00612445410777 
0.000341741604141 -3.84383611933e-05 -0.000354587183087 
-5.69065945311e-05 -9.0656105244e-05 1.42690375502e-05 
0.00764264367179 0.00204844241861 -0.0103027444652 
0.00761435637073 0.00139953596635 -0.00695891710492 
0.00585894933469 0.00116166291239 -0.00533770596013 
0.000462516691982 -0.000286648889848 -2.17441413079e-05 
0.000235734105713 -0.000343087860036 0.000134321045455 
9.01318274053e-06 -0.000357154127658 0.000179921662971 
9.27604885619e-06 -0.000257637800625 0.000203750916422 
-0.000431575225499 -0.000282635458761 -7.25732740163e-06 
0.00752790002089 0.00263565152992 -0.00991595969532 
0.00739027902752 0.00238574448437 -0.00840890835085 
0.00693583392505 0.00212533398177 -0.00703210790589 
0.00620089043519 0.00185394246434 -0.00579650334903 
0.00523132657034 0.00155479573707 -0.00471875621346 
0.00496798999172 0.00119824632395 -0.0114166646724 
-0.00387605143555 0.00106174421349 -0.00396252748909 
0.00131163823901 0.000609400839617 -0.00208839334155 
0.00241398933938 0.00103607161953 -0.015322314814 
0.00468405001662 0.00104059802487 -0.00456874579099 
0.00343652605233 0.000921492022456 -0.00378728528176 
0.00224439299259 0.000814555959642 -0.00295953595369 
0.000487268382344 0.000409829014543 -0.00120656820405 
-9.34983932023e-05 2.16431069601e-05 -0.000255772337215 
-0.000191195405826 0.00018810500567 -0.000647644686643 
-0.000435421248762 0.000415563150997 -0.00116265856053 
-0.00585827232348 0.00108357110806 -0.00994599078837 
-0.00301007564085 -3.6078534049e-05 -0.00834074343982 
0.00398175397354 0.00119373341504 -0.00376951956788 
0.00736194063402 0.00260396556261 -0.01153691433 
-0.0075826737412 0.00225858411072 -0.0105960825039 
-0.00759795899624 0.00231809744725 -0.00925176325849 
-0.0073022683825 0.00216835588418 -0.00791911559054 
-0.00673055432411 0.00195635280177 -0.00666591556456 
-0.00592601082629 0.0017232727648 -0.00554566094418 
-0.00493141650669 0.00147072665669 -0.00454509530504 
-0.00372860551722 0.00112221688678 -0.00365781229907 
-0.00199106232577 0.000151399476279 -0.0226999915026 
-0.0015141530377 -0.000620116782919 -0.0269404846595 
-0.000698715795968 -0.00112056939696 -0.0293479165286 
0.00024991399942 -0.00122845386519 -0.029837780967 
0.00118675538461 -0.0010012281657 -0.0285334243614 
0.00196045149349 -0.000568539108691 -0.0258226263263 
0.0027962666243 7.68609599641e-05 -0.0220046795364 
0.00382704821718 0.0013039681706 -0.016709225082 
-0.000928785715826 0.000192004474887 -0.00125773846503 
-0.000617040425952 -0.000128638669629 -0.000379791314366 
0.000675109676187 -0.000129598897469 -0.000413687329746 
-0.000111862783025 0.000662520721332 -0.000687696084135 
1.06939482662e-05 0.000502010260725 -0.000530747690643 
7.92751571264e-05 0.00035530759038 -0.000399420541593 
0.000110727569926 0.000228320356466 -0.000278029678414 
0.000117797425311 0.000141192389864 -0.000177127564901 
0.000107436196142 7.25327237331e-05 -8.50791326843e-05 
8.10550398391e-05 2.26065187606e-05 -1.69232300244e-05 
4.37848634036e-05 -8.22566769821e-06 2.50923415019e-05 
2.14822444852e-07 -1.87827038156e-05 3.95809276511e-05 
-4.32877237557e-05 -7.80456696213e-06 2.44857272025e-05 
-8.2030784121e-05 2.36863991413e-05 -1.85886114385e-05 
-0.000108473805368 7.5102382112e-05 -8.90786029308e-05 
-0.000118467858765 0.000144309020234 -0.000182173283925 
-0.000112003680408 0.000236013021266 -0.000289517744358 
-7.94856033416e-05 0.000365066281761 -0.000412309837875 
-8.78962063713e-06 0.000513382354473 -0.000546844627865 
0.000113188633674 0.000667008618745 -0.000694058640293 
0.000326180345791 0.000808060366543 -0.000865446267804 
0.00314022395246 -0.000151260950687 -0.00622349346587 
0.00313244326577 -3.15966545783e-05 -0.00837527138912 
0.0031395119573 0.000106015119057 -0.0106015457236 
0.00311617102556 0.000315799050761 -0.0131019349788 
0.00297766471397 0.000671183406566 -0.0160759097432 
0.00242019607576 0.00135575466061 -0.0197968090222 
0.00124834533655 0.00240911176583 -0.0246714158172 
0.000485094043803 0.00384016709883 -0.030570169256 
0.000394158622089 0.00464227411078 -0.0340639168831 
7.95603130394e-05 0.00496834015956 -0.0352194339369 
-0.000239768587528 0.0046801225183 -0.0342989786591 
-0.000290406948012 0.00388150060664 -0.0309456169434 
-0.000862904327051 0.00245996071626 -0.0251038062616 
-0.00201774682939 0.00141546030471 -0.0200995838822 
-0.00269801376672 0.000710960650917 -0.0162309457232 
-0.00296167836237 0.000322052925847 -0.0131182735724 
-0.00301698805419 0.000102133682477 -0.0105672215135 
-0.00301199577482 -0.000153279175366 -0.0062226377346 
0.000773449464687 -0.000107738843933 -0.00636701595964 
-0.00142620666401 -7.99329482479e-05 -0.00643602027289 
-0.00343723384767 -5.90896665683e-05 -0.00647324259552 
-0.00519659134483 -4.84006096396e-05 -0.00644277564939 
-0.00663443989924 -2.6866113915e-05 -0.00646133530663 
-0.00763531276808 2.34577806682e-05 -0.0065240511796 
-0.0081629868534 0.000104660006837 -0.00656499959077 
-0.00823176833673 0.00020355080366 -0.006523687378 
-0.00788744350637 0.000315805832766 -0.00636982653026 
-0.00720729910733 0.000440429472118 -0.00610841248316 
-0.00625767023374 0.000590711760498 -0.00572695049125 
-0.00515769997941 0.000752622095484 -0.00524950119059 
-0.00403839625246 0.000909903790424 -0.00469309118241 
-0.00297902786583 0.00104423891393 -0.00404089842417 
-0.00205691129652 0.0011321316706 -0.00330969161764 
-0.00131847760863 0.00114784961971 -0.0025349836464 
-0.000765568428317 0.00106138236101 -0.00173834581212 
-0.000323872321031 0.000803226452687 -0.000857649251734 
0.000769372112044 0.00106587534523 -0.0017520607487 
0.00133089314295 0.00115655279631 -0.00256608896628 
0.00208420032362 0.00114422047365 -0.00336531667446 
0.00303056361785 0.00105478280794 -0.00412908862317 
0.00412535552049 0.000910120858688 -0.00481221283035 
0.00527175755192 0.00073661025199 -0.00538233865994 
0.00637967003847 0.000561075759112 -0.0058369958604 
0.00732422748403 0.000404450268489 -0.00618791829466 
0.00800066340448 0.00028420239481 -0.00641591525839 
0.00834105696666 0.000188236347799 -0.00655185923888 
0.00826912362207 0.000109074114656 -0.00660424645727 
0.00773598709084 4.09412027817e-05 -0.0065903723688 
0.00673595925219 -1.59593184242e-05 -0.0065254776681 
0.00530093075331 -5.4595723688e-05 -0.00645161286358 
0.00352127459596 -7.73990572371e-05 -0.00639360300662 
0.00148290594279 -9.71653855961e-05 -0.00632904216241 
-0.00071878512049 -0.000119771245138 -0.00627155842984 
0.000983482699248 0.000200977428089 -0.00130107718699 
0.00647465015259 0.002301964309 -0.0127461405426 
-0.00621524049982 0.00207568726854 -0.0123747096186 
-0.00246597909484 0.000789508307163 -0.00290490936281 
0.00248847007411 0.000784371951631 -0.00289443829524 
0.00790531970186 0.00206566774058 -0.00933164319199 
0.00684081815033 0.00190839999927 -0.0111768892014 
-0.00655503304826 0.00166397444868 -0.0108992911241 
-0.00735126424688 0.00181694151147 -0.0101933668303 
-0.00287796519576 0.00111236331207 -0.0174073465672 
0.00214800376834 0.000495865979334 -0.0215850036832 
0.00259880060552 0.00101972600879 -0.0181223287 
0.00491187402036 0.00165431364946 -0.0137970002052 
-0.00149911501814 0.000546948948967 -0.00218680499178 
-0.000111511625576 -0.000238998862128 0.000164669939847 
0.000243538564314 -0.000171872965578 -1.30767191845e-05 
0.000504802045797 0.000172461818858 -0.000896550523088 
-0.000457849451096 0.000876360954935 -0.00135265399762 
-0.000219712484601 0.000689889020396 -0.00104532434276 
-4.58855657078e-05 0.000498911145995 -0.000769525452188 
5.83520819464e-05 0.000320526946018 -0.000525344258637 
0.000104386841371 0.000183983065369 -0.000318436606508 
0.00011064194063 8.29487479321e-05 -0.000142026896905 
8.75078740527e-05 1.01967556577e-05 -1.05607786485e-05 
4.7214699572e-05 -3.3121443776e-05 6.82788243413e-05 
1.85259790959e-07 -4.79631129215e-05 9.45106461125e-05 
-4.62011982676e-05 -3.29080596332e-05 6.68023143491e-05 
-8.51560186099e-05 1.23202384314e-05 -1.71252926258e-05 
-0.000105504501921 8.8085412747e-05 -0.000157089226059 
-9.62240437425e-05 0.000192823899502 -0.000342314786125 
-4.44903156291e-05 0.000335322385616 -0.000558289135193 
7.25404707357e-05 0.000520483067013 -0.000822131142689 
0.000250481688426 0.000708078439734 -0.00109933405465 
0.000477671143276 0.000887121664536 -0.00138941561318 
0.00073166064037 7.91774934085e-05 -0.00848623702217 
0.000687831604752 0.000282286087896 -0.0107689823566 
0.000707420981245 0.00052849553709 -0.0133328255393 
0.000794442287992 0.000807572458135 -0.0162336758915 
0.000559045325157 0.00121857704574 -0.0198928961113 
3.62437705284e-05 0.00179339034927 -0.0241869799489 
-0.000284540330261 0.00236273302292 -0.0283945733717 
-0.000205694239113 0.00275956703324 -0.0316253383832 
3.45586623087e-05 0.002913156304 -0.0329321974432 
0.000272675645584 0.00282262654805 -0.0322115743764 
0.000427379505306 0.0024397294304 -0.0294457886388 
0.000314878649991 0.00184268439073 -0.0251551957645 
-8.65590885713e-05 0.00128046474093 -0.02050013681 
-0.000504256814798 0.000845525095872 -0.0164095052715 
-0.000680246820051 0.000500341978861 -0.01315721617 
-0.000698019293029 0.00024975747502 -0.0105839726059 
-0.000691817626519 5.85088365027e-05 -0.00834665233298 
-0.00155540508889 0.000193712212149 -0.00855284623346 
-0.00352554787998 0.000282879382528 -0.00836223578914 
-0.00527810999855 0.000340623117759 -0.00790149439441 
-0.00672694482093 0.000383165221899 -0.00752639072865 
-0.00769156743376 0.000469173594364 -0.00734199326085 
-0.00817361590181 0.000560169057301 -0.00713218151664 
-0.00819414159945 0.000641114494027 -0.00685027867238 
-0.00781658096515 0.000707999457809 -0.00647989107731 
-0.00709476510388 0.000764454200307 -0.00600583357021 
-0.00607042199252 0.000823333435396 -0.0054283158838 
-0.0048819577514 0.000872705703644 -0.00478477182532 
-0.0036897950477 0.000916752297831 -0.00413258703146 
-0.00260960044839 0.000961439494823 -0.00344744240739 
-0.0016995008264 0.000988463158898 -0.00274197340734 
-0.000985247666133 0.000974893782959 -0.00203748004306 
0.00103471555559 0.000986755657439 -0.0021074707822 
0.0018014527547 0.00100242186582 -0.00285806369245 
0.00276800742667 0.000972529074355 -0.00360803370782 
0.00391516672829 0.000911990961624 -0.00432724882178 
0.00511171606648 0.00083712822345 -0.00496861095281 
0.00625658719057 0.000759764697849 -0.00554697274235 
0.00723040958614 0.000696409464439 -0.00605272201788 
0.00794245980018 0.000644860303093 -0.00648908429246 
0.00831363430697 0.000608476002397 -0.00686694921951 
0.00826881460912 0.000560013221031 -0.00718649223177 
0.00774134159875 0.000490837039238 -0.00744356221398 
0.00673405525082 0.000416834800344 -0.00769764251191 
0.00528291536108 0.000326726218407 -0.00793445199508 
0.00350757350708 0.000237322559335 -0.00815156262418 
0.00149082132749 0.000146918158638 -0.0082865468225 
0.00148937360106 0.000525300750278 -0.00215099451178 
0.00571517575239 0.00165931638226 -0.0121974363802 
-0.00422637036452 0.00138382587425 -0.0135499433131 
-0.0024071684998 0.000807692754691 -0.0030633636635 
0.00202801537947 0.000723259194671 -0.00273306478415 
0.0031127235272 0.000901336842649 -0.00350267671417 
0.00437146342542 0.00113501351912 -0.00429694225615 
0.00772983986299 0.00151030149103 -0.00932233021098 
0.0067351095963 0.00138793629365 -0.0100717253057 
-0.00513298805264 0.00123650328129 -0.0112947936522 
-0.0068462107281 0.00126160315051 -0.00957840870042 
-0.00769997880757 0.00150871088041 -0.00918413432464 
-0.0079528827911 0.00165538187327 -0.00880977924721 
-0.00792359062534 0.00167940091093 -0.00821194501615 
-0.00755936513118 0.0016120273011 -0.00732055285294 
-0.00690086687325 0.00148928640135 -0.00640115341878 
-0.00595047618451 0.00134121252549 -0.00548919437524 
-0.00481322495876 0.00118316647189 -0.00463570358581 
-0.00330519466175 0.000938118319387 -0.00366443244998 
-0.00116455522969 0.000655114505861 -0.0240827319711 
-0.00170943550577 0.00102312770092 -0.0186637702945 
-0.000694238952502 0.000311684594837 -0.0281094788266 
-0.000215161835769 0.000135540103775 -0.0301584627304 
0.000281967245546 0.000115095470011 -0.0302564439676 
0.000779704723974 0.000235721104254 -0.0284221162027 
0.00132069444508 0.000528061773842 -0.0244338915739 
0.00171366466414 0.000985454658892 -0.0195444933178 
0.00362434192318 0.001265997252 -0.0144716868567 
-0.000898904895126 0.00045979853122 -0.00163754502318 
-0.000474936614583 0.000172709915459 -0.000878543750525 
-0.000301428567019 -4.17585745516e-05 -0.00031824869464 
0.000228040204337 0.000190663495445 -0.000682120923437 
0.00085475958694 0.000421138723491 -0.00154899299021 
-0.000647839613098 0.000789250808762 -0.00159878969651 
-0.000347009679019 0.000587516616322 -0.00119161912219 
-0.00012166959565 0.000378196415758 -0.000800838518523 
-2.11320758569e-06 0.000195207184394 -0.000465275418251 
4.15505303035e-05 6.46887046674e-05 -0.000196275209306 
3.95860788699e-05 -2.89587749031e-05 3.562509325e-06 
2.21253615238e-05 -8.10835135451e-05 0.000114981171399 
1.37512026744e-06 -9.85096226607e-05 0.000149402711008 
-1.76301513054e-05 -8.02968296691e-05 0.000109324414241 
-3.06975482418e-05 -2.55481036234e-05 -1.20459631929e-05 
-2.17460460188e-05 6.92699467993e-05 -0.0002240492585 
3.34112909717e-05 0.000205211639292 -0.000511260148135 
0.000175513164938 0.000397100218319 -0.000880992810844 
0.000450817111504 0.000616380807122 -0.00132359648543 
0.000759473307763 0.000813592173089 -0.00173391924984 
-0.00158586650159 0.000489717862976 -0.0108347924003 
-0.00132733663233 0.000774551426704 -0.0135617801185 
-0.000956183398022 0.000924428292385 -0.0169518327211 
-0.000410633814048 0.00106170799915 -0.0196622635214 
-0.000705812183887 0.00119749455807 -0.0224579123214 
-0.000668574980055 0.00132407380149 -0.0262890217618 
-0.000406919293052 0.00138858610403 -0.0296682209092 
-3.93710014709e-05 0.00141339750421 -0.0312734658328 
0.000320304345196 0.00139721197158 -0.0309381351053 
0.000650486674445 0.00130476758253 -0.0286623791264 
0.000887911095516 0.00119615937497 -0.0248974011292 
0.000979778813564 0.00110031705256 -0.0204909636701 
0.00106113489062 0.000909317553017 -0.0161520942061 
0.00127698332882 0.000662802296563 -0.012895530892 
0.00144017301596 0.000399343758301 -0.0104093600238 
-0.00371301452064 0.000746443151957 -0.0105826097094 
-0.005467986461 0.000735023239911 -0.00912643270141 
-0.00686053193793 0.000821671559261 -0.00853272862981 
-0.00772254630413 0.000979903219159 -0.00825139808189 
-0.00811743310683 0.00106782032967 -0.00785530003046 
-0.00809326396891 0.00112828695105 -0.00740206108145 
-0.00771747742297 0.00113087405539 -0.00682505089833 
-0.00699257329492 0.0011013131947 -0.00614015323068 
-0.00593830214009 0.00105535723513 -0.00538098019571 
-0.00452007303861 0.00099009402092 -0.00448965092275 
-0.00318113557893 0.000901230011547 -0.00366930943125 
-0.00211609953002 0.000860731183116 -0.0029239437996 
-0.00127693633434 0.00083278936636 -0.00222950834995 
0.00147530784931 0.000852520950206 -0.00242518467358 
0.00247003823558 0.000891288703815 -0.00321299894833 
0.00368216283604 0.000918703424208 -0.00401669783316 
0.00491871108972 0.000937117790742 -0.00474470064605 
0.00608346455399 0.000957607476937 -0.00542625882384 
0.00707637344317 0.000988502187804 -0.00608102826343 
0.00781360959517 0.00102595987168 -0.00671937765757 
0.00822096535265 0.00105290416636 -0.00733014186534 
0.00821988980764 0.00105254467174 -0.00789308222294 
0.00773343293622 0.00100621827886 -0.00841539354934 
0.00669441867523 0.000891680306021 -0.00891605381343 
0.00519769047064 0.000746920776681 -0.009539129948 
0.00341976335219 0.000568887732555 -0.0100467522496 
-0.0015087266376 0.000704472434154 -0.00234939831107 
-0.00283411563177 0.00104499877457 -0.0137465960745 
0.0030522243548 0.000869388712181 -0.0122865933328 
-0.000828372183508 0.00064194116749 -0.00171286626054 
0.00109761794095 0.000671605762554 -0.00198473098603 
0.00557868202242 0.00136325772055 -0.00514664495147 
-0.000217841115501 -0.000342372839086 0.000140823505369 
-0.000217841115501 0.000342372839086 0.000140823505369 
0.00557868202242 -0.00136325772055 -0.00514664495147 
0.00109761794095 -0.000671605762554 -0.00198473098603 
-0.000828372183508 -0.00064194116749 -0.00171286626054 
0.0030522243548 -0.000869388712181 -0.0122865933328 
-0.00283411563177 -0.00104499877457 -0.0137465960745 
-0.0015087266376 -0.000704472434154 -0.00234939831107 
0.00341976335219 -0.000568887732555 -0.0100467522496 
0.00519769047064 -0.000746920776681 -0.009539129948 
0.00669441867523 -0.000891680306021 -0.00891605381343 
0.00773343293622 -0.00100621827886 -0.00841539354934 
0.00821988980764 -0.00105254467174 -0.00789308222294 
0.00822096535265 -0.00105290416636 -0.00733014186534 
0.00781360959517 -0.00102595987168 -0.00671937765757 
0.00707637344317 -0.000988502187804 -0.00608102826343 
0.00608346455399 -0.000957607476937 -0.00542625882384 
0.00491871108972 -0.000937117790742 -0.00474470064605 
0.00368216283604 -0.000918703424208 -0.00401669783316 
0.00247003823558 -0.000891288703815 -0.00321299894833 
0.00147530784931 -0.000852520950206 -0.00242518467358 
-0.00127693633434 -0.00083278936636 -0.00222950834995 
-0.00211609953002 -0.000860731183116 -0.0029239437996 
-0.00318113557893 -0.000901230011547 -0.00366930943125 
-0.00452007303861 -0.00099009402092 -0.00448965092275 
-0.00593830214009 -0.00105535723513 -0.00538098019571 
-0.00699257329492 -0.0011013131947 -0.00614015323068 
-0.00771747742297 -0.00113087405539 -0.00682505089833 
-0.00809326396891 -0.00112828695105 -0.00740206108145 
-0.00811743310683 -0.00106782032967 -0.00785530003046 
-0.00772254630413 -0.000979903219159 -0.00825139808189 
-0.00686053193793 -0.000821671559261 -0.00853272862981 
-0.005467986461 -0.000735023239911 -0.00912643270141 
-0.00371301452064 -0.000746443151957 -0.0105826097094 
0.00144017301596 -0.000399343758301 -0.0104093600238 
0.00127698332882 -0.000662802296563 -0.012895530892 
0.00106113489062 -0.000909317553017 -0.0161520942061 
0.000979778813564 -0.00110031705256 -0.0204909636701 
0.000887911095516 -0.00119615937497 -0.0248974011292 
0.000650486674445 -0.00130476758253 -0.0286623791264 
0.000320304345196 -0.00139721197158 -0.0309381351053 
-3.93710014709e-05 -0.00141339750421 -0.0312734658328 
-0.000406919293052 -0.00138858610403 -0.0296682209092 
-0.000668574980055 -0.00132407380149 -0.0262890217618 
-0.000705812183887 -0.00119749455807 -0.0224579123214 
-0.000410633814048 -0.00106170799915 -0.0196622635214 
-0.000956183398022 -0.000924428292385 -0.0169518327211 
-0.00132733663233 -0.000774551426704 -0.0135617801185 
-0.00158586650159 -0.000489717862976 -0.0108347924003 
0.000759473307763 -0.000813592173089 -0.00173391924984 
0.000450817111504 -0.000616380807122 -0.00132359648543 
0.000175513164938 -0.000397100218319 -0.000880992810844 
3.34112909717e-05 -0.000205211639292 -0.000511260148135 
-2.17460460188e-05 -6.92699467993e-05 -0.0002240492585 
-3.06975482418e-05 2.55481036234e-05 -1.20459631929e-05 
-1.76301513054e-05 8.02968296691e-05 0.000109324414241 
1.37512026744e-06 9.85096226607e-05 0.000149402711008 
2.21253615238e-05 8.10835135451e-05 0.000114981171399 
3.95860788699e-05 2.89587749031e-05 3.562509325e-06 
4.15505303035e-05 -6.46887046674e-05 -0.000196275209306 
-2.11320758569e-06 -0.000195207184394 -0.000465275418251 
-0.00012166959565 -0.000378196415758 -0.000800838518523 
-0.000347009679019 -0.000587516616322 -0.00119161912219 
-0.000647839613098 -0.000789250808762 -0.00159878969651 
0.00085475958694 -0.000421138723491 -0.00154899299021 
0.000228040204337 -0.000190663495445 -0.000682120923437 
-0.000301428567019 4.17585745516e-05 -0.00031824869464 
-0.000474936614583 -0.000172709915459 -0.000878543750525 
-0.000898904895126 -0.00045979853122 -0.00163754502318 
0.00362434192318 -0.001265997252 -0.0144716868567 
0.00171366466414 -0.000985454658892 -0.0195444933178 
0.00132069444508 -0.000528061773842 -0.0244338915739 
0.000779704723974 -0.000235721104254 -0.0284221162027 
0.000281967245546 -0.000115095470011 -0.0302564439676 
-0.000215161835769 -0.000135540103775 -0.0301584627304 
-0.000694238952502 -0.000311684594837 -0.0281094788266 
-0.00170943550577 -0.00102312770092 -0.0186637702945 
-0.00116455522969 -0.000655114505861 -0.0240827319711 
-0.00330519466175 -0.000938118319387 -0.00366443244998 
-0.00481322495876 -0.00118316647189 -0.00463570358581 
-0.00595047618451 -0.00134121252549 -0.00548919437524 
-0.00690086687325 -0.00148928640135 -0.00640115341878 
-0.00755936513118 -0.0016120273011 -0.00732055285294 
-0.00792359062534 -0.00167940091093 -0.00821194501615 
-0.0079528827911 -0.00165538187327 -0.00880977924721 
-0.00769997880757 -0.00150871088041 -0.00918413432464 
-0.0068462107281 -0.00126160315051 -0.00957840870042 
-0.00513298805264 -0.00123650328129 -0.0112947936522 
0.0067351095963 -0.00138793629365 -0.0100717253057 
0.00772983986299 -0.00151030149103 -0.00932233021098 
0.00437146342542 -0.00113501351912 -0.00429694225615 
0.0031127235272 -0.000901336842649 -0.00350267671417 
0.00202801537947 -0.000723259194671 -0.00273306478415 
-0.0024071684998 -0.000807692754691 -0.0030633636635 
-0.00422637036452 -0.00138382587425 -0.0135499433131 
0.00571517575239 -0.00165931638226 -0.0121974363802 
0.00148937360106 -0.000525300750278 -0.00215099451178 
0.00149082132749 -0.000146918158638 -0.0082865468225 
0.00350757350708 -0.000237322559335 -0.00815156262418 
0.00528291536108 -0.000326726218407 -0.00793445199508 
0.00673405525082 -0.000416834800344 -0.00769764251191 
0.00774134159875 -0.000490837039238 -0.00744356221398 
0.00826881460912 -0.000560013221031 -0.00718649223177 
0.00831363430697 -0.000608476002397 -0.00686694921951 
0.00794245980018 -0.000644860303093 -0.00648908429246 
0.00723040958614 -0.000696409464439 -0.00605272201788 
0.00625658719057 -0.000759764697849 -0.00554697274235 
0.00511171606648 -0.00083712822345 -0.00496861095281 
0.00391516672829 -0.000911990961624 -0.00432724882178 
0.00276800742667 -0.000972529074355 -0.00360803370782 
0.0018014527547 -0.00100242186582 -0.00285806369245 
0.00103471555559 -0.000986755657439 -0.0021074707822 
-0.000985247666133 -0.000974893782959 -0.00203748004306 
-0.0016995008264 -0.000988463158898 -0.00274197340734 
-0.00260960044839 -0.000961439494823 -0.00344744240739 
-0.0036897950477 -0.000916752297831 -0.00413258703146 
-0.0048819577514 -0.000872705703644 -0.00478477182532 
-0.00607042199252 -0.000823333435396 -0.0054283158838 
-0.00709476510388 -0.000764454200307 -0.00600583357021 
-0.00781658096515 -0.000707999457809 -0.00647989107731 
-0.00819414159945 -0.000641114494027 -0.00685027867238 
-0.00817361590181 -0.000560169057301 -0.00713218151664 
-0.00769156743376 -0.000469173594364 -0.00734199326085 
-0.00672694482093 -0.000383165221899 -0.00752639072865 
-0.00527810999855 -0.000340623117759 -0.00790149439441 
-0.00352554787998 -0.000282879382528 -0.00836223578914 
-0.00155540508889 -0.000193712212149 -0.00855284623346 
-0.000691817626519 -5.85088365027e-05 -0.00834665233298 
-0.000698019293029 -0.00024975747502 -0.0105839726059 
-0.00068024682005 -0.000500341978861 -0.01315721617 
-0.000504256814798 -0.000845525095872 -0.0164095052715 
-8.65590885713e-05 -0.00128046474093 -0.02050013681 
0.000314878649991 -0.00184268439073 -0.0251551957645 
0.000427379505306 -0.0024397294304 -0.0294457886388 
0.000272675645584 -0.00282262654805 -0.0322115743764 
3.45586623087e-05 -0.002913156304 -0.0329321974432 
-0.000205694239113 -0.00275956703324 -0.0316253383832 
-0.000284540330261 -0.00236273302292 -0.0283945733717 
3.62437705284e-05 -0.00179339034927 -0.0241869799489 
0.000559045325157 -0.00121857704574 -0.0198928961113 
0.000794442287992 -0.000807572458135 -0.0162336758915 
0.000707420981245 -0.00052849553709 -0.0133328255393 
0.000687831604752 -0.000282286087896 -0.0107689823566 
0.00073166064037 -7.91774934085e-05 -0.00848623702217 
0.000477671143276 -0.000887121664536 -0.00138941561318 
0.000250481688426 -0.000708078439734 -0.00109933405465 
7.25404707357e-05 -0.000520483067013 -0.000822131142689 
-4.44903156291e-05 -0.000335322385616 -0.000558289135193 
-9.62240437425e-05 -0.000192823899502 -0.000342314786125 
-0.000105504501921 -8.8085412747e-05 -0.000157089226059 
-8.51560186099e-05 -1.23202384314e-05 -1.71252926258e-05 
-4.62011982676e-05 3.29080596332e-05 6.68023143491e-05 
1.85259790959e-07 4.79631129215e-05 9.45106461125e-05 
4.7214699572e-05 3.3121443776e-05 6.82788243413e-05 
8.75078740527e-05 -1.01967556577e-05 -1.05607786485e-05 
0.00011064194063 -8.29487479321e-05 -0.000142026896905 
0.000104386841371 -0.000183983065369 -0.000318436606508 
5.83520819464e-05 -0.000320526946018 -0.000525344258637 
-4.58855657078e-05 -0.000498911145995 -0.000769525452188 
-0.000219712484601 -0.000689889020396 -0.00104532434276 
-0.000457849451096 -0.000876360954935 -0.00135265399762 
0.000504802045797 -0.000172461818858 -0.000896550523088 
0.000243538564314 0.000171872965578 -1.30767191845e-05 
-0.000111511625576 0.000238998862128 0.000164669939847 
-0.00149911501814 -0.000546948948967 -0.00218680499178 
0.00491187402036 -0.00165431364946 -0.0137970002052 
0.00259880060552 -0.00101972600879 -0.0181223287 
0.00214800376834 -0.000495865979334 -0.0215850036832 
-0.00287796519576 -0.00111236331207 -0.0174073465672 
-0.00735126424688 -0.00181694151147 -0.0101933668303 
-0.00655503304826 -0.00166397444868 -0.0108992911241 
0.00684081815033 -0.00190839999927 -0.0111768892014 
0.00790531970186 -0.00206566774058 -0.00933164319199 
0.00248847007411 -0.000784371951631 -0.00289443829524 
-0.00246597909484 -0.000789508307163 -0.00290490936281 
-0.00621524049982 -0.00207568726854 -0.0123747096186 
0.00647465015259 -0.002301964309 -0.0127461405426 
0.000983482699248 -0.000200977428089 -0.00130107718699 
-0.00071878512049 0.000119771245138 -0.00627155842984 
0.00148290594279 9.71653855961e-05 -0.00632904216241 
0.00352127459596 7.73990572371e-05 -0.00639360300662 
0.00530093075331 5.4595723688e-05 -0.00645161286358 
0.00673595925219 1.59593184242e-05 -0.0065254776681 
0.00773598709084 -4.09412027817e-05 -0.0065903723688 
0.00826912362207 -0.000109074114656 -0.00660424645727 
0.00834105696666 -0.000188236347799 -0.00655185923888 
0.00800066340448 -0.00028420239481 -0.00641591525839 
0.00732422748403 -0.000404450268489 -0.00618791829466 
0.00637967003847 -0.000561075759112 -0.0058369958604 
0.00527175755192 -0.00073661025199 -0.00538233865994 
0.00412535552049 -0.000910120858688 -0.00481221283035 
0.00303056361785 -0.00105478280794 -0.00412908862317 
0.00208420032362 -0.00114422047365 -0.00336531667446 
0.00133089314295 -0.00115655279631 -0.00256608896628 
0.000769372112044 -0.00106587534523 -0.0017520607487 
-0.000323872321031 -0.000803226452687 -0.000857649251734 
-0.000765568428317 -0.00106138236101 -0.00173834581212 
-0.00131847760863 -0.00114784961971 -0.0025349836464 
-0.00205691129652 -0.0011321316706 -0.00330969161764 
-0.00297902786583 -0.00104423891393 -0.00404089842417 
-0.00403839625246 -0.000909903790424 -0.00469309118241 
-0.00515769997941 -0.000752622095484 -0.00524950119059 
-0.00625767023374 -0.000590711760498 -0.00572695049125 
-0.00720729910733 -0.000440429472118 -0.00610841248316 
-0.00788744350637 -0.000315805832766 -0.00636982653026 
-0.00823176833673 -0.00020355080366 -0.006523687378 
-0.0081629868534 -0.000104660006837 -0.00656499959077 
-0.00763531276808 -2.34577806682e-05 -0.0065240511796 
-0.00663443989924 2.6866113915e-05 -0.00646133530663 
-0.00519659134483 4.84006096396e-05 -0.00644277564939 
-0.00343723384767 5.90896665683e-05 -0.00647324259552 
-0.00142620666401 7.99329482479e-05 -0.00643602027289 
0.000773449464687 0.000107738843933 -0.00636701595964 
-0.00301199577482 0.000153279175366 -0.0062226377346 
-0.00301698805419 -0.000102133682477 -0.0105672215135 
-0.00296167836237 -0.000322052925847 -0.0131182735724 
-0.00269801376672 -0.000710960650917 -0.0162309457232 
-0.00201774682939 -0.00141546030471 -0.0200995838822 
-0.000862904327051 -0.00245996071626 -0.0251038062616 
-0.000290406948012 -0.00388150060664 -0.0309456169434 
-0.000239768587528 -0.0046801225183 -0.0342989786591 
7.95603130394e-05 -0.00496834015956 -0.0352194339369 
0.000394158622089 -0.00464227411078 -0.0340639168831 
0.000485094043803 -0.00384016709883 -0.030570169256 
0.00124834533655 -0.00240911176583 -0.0246714158172 
0.00242019607576 -0.00135575466061 -0.0197968090222 
0.00297766471397 -0.000671183406566 -0.0160759097432 
0.00311617102556 -0.000315799050761 -0.0131019349788 
0.0031395119573 -0.000106015119057 -0.0106015457236 
0.00313244326577 3.15966545783e-05 -0.00837527138912 
0.00314022395246 0.000151260950687 -0.00622349346587 
0.000326180345791 -0.000808060366543 -0.000865446267804 
0.000113188633674 -0.000667008618745 -0.000694058640293 
-8.78962063713e-06 -0.000513382354473 -0.000546844627865 
-7.94856033416e-05 -0.000365066281761 -0.000412309837875 
-0.000112003680408 -0.000236013021266 -0.000289517744358 
-0.000118467858765 -0.000144309020234 -0.000182173283925 
-0.000108473805368 -7.5102382112e-05 -8.90786029308e-05 
-8.2030784121e-05 -2.36863991413e-05 -1.85886114385e-05 
-4.32877237557e-05 7.80456696213e-06 2.44857272025e-05 
2.14822444852e-07 1.87827038156e-05 3.95809276511e-05 
4.37848634036e-05 8.22566769821e-06 2.50923415019e-05 
8.10550398391e-05 -2.26065187606e-05 -1.69232300244e-05 
0.000107436196142 -7.25327237331e-05 -8.50791326843e-05 
0.000117797425311 -0.000141192389864 -0.000177127564901 
0.000110727569926 -0.000228320356466 -0.000278029678414 
7.92751571264e-05 -0.00035530759038 -0.000399420541593 
1.06939482662e-05 -0.000502010260725 -0.000530747690643 
-0.000111862783025 -0.000662520721332 -0.000687696084135 
0.000675109676187 0.000129598897469 -0.000413687329746 
-0.000617040425952 0.000128638669629 -0.000379791314366 
-0.000928785715826 -0.000192004474887 -0.00125773846503 
0.00382704821718 -0.0013039681706 -0.016709225082 
0.0027962666243 -7.68609599641e-05 -0.0220046795364 
0.00196045149349 0.000568539108691 -0.0258226263263 
0.00118675538461 0.0010012281657 -0.0285334243614 
0.00024991399942 0.00122845386519 -0.029837780967 
-0.000698715795968 0.00112056939696 -0.0293479165286 
-0.0015141530377 0.000620116782919 -0.0269404846595 
-0.00199106232577 -0.000151399476279 -0.0226999915026 
-0.00372860551722 -0.00112221688678 -0.00365781229907 
-0.00493141650669 -0.00147072665669 -0.00454509530504 
-0.00592601082629 -0.0017232727648 -0.00554566094418 
-0.00673055432411 -0.00195635280177 -0.00666591556456 
-0.0073022683825 -0.00216835588418 -0.00791911559054 
-0.00759795899624 -0.00231809744725 -0.00925176325849 
-0.0075826737412 -0.00225858411072 -0.0105960825039 
0.00736194063402 -0.00260396556261 -0.01153691433 
0.00398175397354 -0.00119373341504 -0.00376951956788 
-0.00301007564085 3.6078534049e-05 -0.00834074343982 
-0.00585827232348 -0.00108357110806 -0.00994599078837 
-0.000435421248762 -0.000415563150997 -0.00116265856053 
-0.000191195405826 -0.00018810500567 -0.000647644686643 
-9.34983932023e-05 -2.16431069601e-05 -0.000255772337215 
0.000487268382344 -0.000409829014543 -0.00120656820405 
0.00224439299259 -0.000814555959642 -0.00295953595369 
0.00343652605233 -0.000921492022456 -0.00378728528176 
0.00468405001662 -0.00104059802487 -0.00456874579099 
0.00241398933938 -0.00103607161953 -0.015322314814 
0.00131163823901 -0.000609400839617 -0.00208839334155 
-0.00387605143555 -0.00106174421349 -0.00396252748909 
0.00496798999172 -0.00119824632395 -0.0114166646724 
0.00523132657034 -0.00155479573707 -0.00471875621346 
0.00620089043519 -0.00185394246434 -0.00579650334903 
0.00693583392505 -0.00212533398177 -0.00703210790589 
0.00739027902752 -0.00238574448437 -0.00840890835085 
0.00752790002089 -0.00263565152992 -0.00991595969532 
-0.000431575225499 0.000282635458761 -7.25732740163e-06 
9.27604885619e-06 0.000257637800625 0.000203750916422 
9.01318274053e-06 0.000357154127658 0.000179921662971 
0.000235734105713 0.000343087860036 0.000134321045455 
0.000462516691982 0.000286648889848 -2.17441413079e-05 
0.00585894933469 -0.00116166291239 -0.00533770596013 
0.00761435637073 -0.00139953596635 -0.00695891710492 
0.00764264367179 -0.00204844241861 -0.0103027444652 
-5.69065945311e-05 9.0656105244e-05 1.42690375502e-05 
0.000341741604141 3.84383611933e-05 -0.000354587183087 
0.006858413674 -0.00128053589136 -0.00612445410777 
0.00804752502214 -0.00149245770149 -0.00778625526823 
0.0081176940291 -0.00154088867464 -0.00858711869825 
-2.93408401009e-05 0.000150155489048 0.000151407306286 
4.85002203354e-06 0.000168564638959 0.000190219603632 
4.10711717689e-05 0.00014890201759 0.000142335585016 
7.43477063502e-05 8.67112408357e-05 -7.91686126749e-06 
0.000121698370635 -2.54295626707e-05 -0.000286867557356 
0.00656984179992 -0.0015694962422 -0.00606528648796 
0.00732187306838 -0.00176892470513 -0.00709345828243 
0.00777629267383 -0.00195821851389 -0.00822150637422 
-0.000210797465709 0.000172427423928 1.1653407523e-05 
0.000129833834449 0.000237730512443 0.000155612969872 
0.000744309973193 -0.000980680031494 -0.00118565148962 
0.00109426494538 -0.0012461158711 -0.00220641982066 
0.00164468287797 -0.00135303248136 -0.00312758497855 
0.00237174479831 -0.00130913839361 -0.00402396387135 
0.00327675398869 -0.00115712454201 -0.0048575570202 
0.00431797948719 -0.000924708389732 -0.00557947591181 
0.00541729770809 -0.000642144825217 -0.00614329721362 
0.00646681522326 -0.000352895850621 -0.0065158626323 
0.00734889525958 -0.000121299949734 -0.00668455452217 
0.00799095757276 6.53280812224e-05 -0.00667597692426 
0.00830419911886 0.000218858864902 -0.00650681608298 
0.0082130212406 0.000347230604001 -0.00620439272151 
0.0076732695259 0.000439985975124 -0.00580221408276 
0.00667271196218 0.000475806173931 -0.00535817054049 
0.00524436008718 0.000457493607417 -0.00493090524864 
0.00346082825948 0.00040265000169 -0.00456626753755 
0.0014185544372 0.000345914278662 -0.0042900573358 
-0.000793324208609 0.000301414694638 -0.00410567928183 
-0.00306700367803 0.000280416571756 -0.00401624043557 
0.00320630891752 0.000279881572544 -0.0040071811485 
0.00093534399087 0.000300459544215 -0.00409926150484 
-0.00126973859428 0.000343784901871 -0.00428236717942 
-0.00330625951705 0.000397733433309 -0.00455301156574 
-0.00509342949656 0.000450116943391 -0.00490904330112 
-0.00652984976561 0.000466932939457 -0.00533100446763 
-0.00753717420809 0.000431190688923 -0.00576960699729 
-0.0080895269404 0.000341091148082 -0.00616444566542 
-0.00820056300129 0.000218660245527 -0.00646192281913 
-0.00790888297331 7.02672214794e-05 -0.00662863447962 
-0.00729151517174 -0.000112001688739 -0.00663853399804 
-0.00642847825005 -0.000341608566799 -0.00647253142411 
-0.00539602695393 -0.000629308759555 -0.00610318855649 
-0.00431138438544 -0.000911283970603 -0.0055484148494 
-0.00327773885032 -0.0011459128788 -0.00483580068539 
-0.00237475937821 -0.00130061106035 -0.00400991804844 
-0.00164758758655 -0.00134730728443 -0.00311921421568 
-0.00109562681426 -0.00124294352004 -0.00220210388643 
-0.000744394781201 -0.000979832980454 -0.00118356928533 
-0.00529681340997 0.00029417989724 -0.00399301394918 
0.00545149300246 0.000200790387002 -0.00615988478136 
0.00551395495982 0.000142873590452 -0.0082985664401 
0.00562745926285 6.77041821435e-05 -0.0105377011522 
0.00575182977013 -0.000105817119016 -0.0130477318996 
0.00579502705394 -0.000470423154521 -0.0159806846801 
0.00562384688216 -0.00122813306171 -0.0196324650941 
0.00492522055632 -0.00291592976886 -0.0242138234069 
0.00362092258325 -0.0066988582186 -0.0336688421951 
0.00198372500731 -0.00818337678311 -0.0369163194346 
6.53745603159e-05 -0.00859236710337 -0.03801567497 
-0.00185508646972 -0.00818181613627 -0.0369441611185 
-0.00352472008379 -0.0066889787731 -0.0336930635028 
-0.00467718611916 -0.0029605837773 -0.0243042598695 
-0.00545547190715 -0.0012561067209 -0.0197036199359 
-0.00565520422592 -0.000481763301901 -0.0160159495306 
-0.00561363908283 -0.000110786401096 -0.0130630212881 
-0.005488399365 6.60679903552e-05 -0.0105486874238 
-0.00537401703411 0.000142486217012 -0.00830996755907 
-0.00531231020768 0.00020071109339 -0.00617082197375 
0.0054356332483 0.000294204724535 -0.00398340951106 
0.0 0.0 0.0 
0.0 0.0 0.0 
0.0 0.0 0.0 
0.0 0.0 0.0 
0.0 0.0 0.0 
0.0 0.0 0.0 
0.0 0.0 0.0 
0.0 0.0 0.0 
0.0 0.0 0.0 
0.0 0.0 0.0 
0.0 0.0 0.0 
0.0 0.0 0.0 
0.0 0.0 0.0 
0.0 0.0 0.0 
0.0 0.0 0.0 
0.0 0.0 0.0 
0.0 0.0 0.0 
0.0 0.0 0.0 
0.0 0.0 0.0 
0.0 0.0 0.0 
0.0 0.0 0.0 
-0.00114471977334 0.000308201253512 -0.000493658428261 
-0.000686526037606 0.000430280568166 -8.48621633435e-05 
-0.000324441069804 0.000462597238025 7.51289319039e-05 
-3.39691769651e-07 0.000466628755899 0.000119259277443 
0.000322608370048 0.000461308724911 7.5359301339e-05 
0.00068122596032 0.00042694678967 -8.11679376711e-05 
0.00113347265215 0.000311720475303 -0.00047410087583 
-0.00500639579601 0.000282536777988 -0.0218044569225 
-0.0038120911097 0.00172983353311 -0.0259106993057 
-0.00204619726208 0.00258657347536 -0.0284209937801 
1.02789321852e-05 0.00287454013289 -0.029260649747 
0.00207370156105 0.00261300832446 -0.0284025805708 
0.00391480177528 0.00182113594336 -0.0259244848444 
0.0052580265143 0.000389114217188 -0.0219458096173 
-0.00180858766715 -0.000415268038581 -0.00178179956389 
-0.00672098944043 -0.00330985732826 -0.0123783714562 
-0.0070331185821 -0.00312313924467 -0.0101947363036 
-0.00686572992606 -0.00282995779044 -0.00837436709646 
-0.00641981709837 -0.00250513214974 -0.00675119521537 
-0.00571207680463 -0.00215895429915 -0.00529530807583 
-0.00476382654486 -0.00176867997355 -0.00399846795832 
-0.00354478047043 -0.00129945119969 -0.00286154245301 
-0.00564929682976 -0.00224160491486 -0.0152559098738 
0.00581242499847 -0.0022437457992 -0.0152943479699 
0.00357711907842 -0.00129232906658 -0.00281811210977 
0.00481206098447 -0.00174831109925 -0.00395320252688 
0.00577115697792 -0.00213071869061 -0.00523882631749 
0.00648479754208 -0.00246949546408 -0.00668780215445 
0.006934514737 -0.00278090023131 -0.00830149700394 
0.00711789078716 -0.00304936569202 -0.0100889478976 
0.00687263768466 -0.00327605796091 -0.0122522650403 
0.00182546822624 -0.000415601586468 -0.00177337071154 
0.00612692192449 0.00221116697163 -0.0124699632205 
0.00651219588441 0.00226015823765 -0.0100835827532 
0.00644202995917 0.00209590024519 -0.00819276663034 
0.00608291130329 0.00186322083604 -0.00652252395566 
0.0054537562996 0.00159581540276 -0.00503502553273 
0.00458223817083 0.00128843838835 -0.00370945325793 
0.00349108885734 0.000900221028815 -0.00253845070675 
0.00582793820684 0.00134505084832 -0.0125267097748 
0.00614638234435 0.00144996782868 -0.0101657836381 
0.00611037580471 0.00138891044091 -0.00822301648894 
0.0058079553271 0.00124287729638 -0.00650581296945 
0.00524239306388 0.00105938263014 -0.00498715455229 
0.00444690404469 0.000840963478623 -0.00364995390587 
0.00344356245103 0.000589246981613 -0.00250627073593 
0.00565354933779 0.000638313015962 -0.0125320581555 
0.00595600528186 0.000702682806665 -0.0102038753938 
0.00592685179235 0.000686686462703 -0.00826078654753 
0.0056506702465 0.000619918066627 -0.00652432375944 
0.00512165988432 0.000527213329441 -0.00498970612537 
0.0043678201563 0.000417031223589 -0.00364913070778 
0.00340678260527 0.000295508094706 -0.00250474390743 
0.00559771866104 -1.78608870368e-18 -0.0125300000858 
0.00589555145173 9.39668852355e-19 -0.0102154952247 
0.00586850626468 1.91658634563e-18 -0.00827473262931 
0.00559996447056 1.5938740047e-18 -0.00653459934597 
0.00508223568305 4.92321271353e-19 -0.00499571087969 
0.00434155886321 7.23426883031e-19 -0.0036529955479 
0.00339376147039 4.1150594038e-19 -0.00250731807284 
0.00565354933779 -0.000638313015962 -0.0125320581555 
0.00595600528186 -0.000702682806665 -0.0102038753938 
0.00592685179235 -0.000686686462703 -0.00826078654753 
0.0056506702465 -0.000619918066627 -0.00652432375944 
0.00512165988432 -0.000527213329441 -0.00498970612537 
0.0043678201563 -0.000417031223589 -0.00364913070778 
0.00340678260527 -0.000295508094706 -0.00250474390743 
0.00582793820684 -0.00134505084832 -0.0125267097748 
0.00614638234435 -0.00144996782868 -0.0101657836381 
0.00611037580471 -0.00138891044091 -0.00822301648894 
0.0058079553271 -0.00124287729638 -0.00650581296945 
0.00524239306388 -0.00105938263014 -0.00498715455229 
0.00444690404469 -0.000840963478623 -0.00364995390587 
0.00344356245103 -0.000589246981613 -0.00250627073593 
0.00612692192449 -0.00221116697163 -0.0124699632205 
0.00651219588441 -0.00226015823765 -0.0100835827532 
0.00644202995917 -0.00209590024519 -0.00819276663034 
0.00608291130329 -0.00186322083604 -0.00652252395566 
0.0054537562996 -0.00159581540276 -0.00503502553273 
0.00458223817083 -0.00128843838835 -0.00370945325793 
0.00349108885734 -0.000900221028815 -0.00253845070675 
0.00357711907842 0.00129232906658 -0.00281811210977 
0.00481206098447 0.00174831109925 -0.00395320252688 
0.00577115697792 0.00213071869061 -0.00523882631749 
0.00648479754208 0.00246949546408 -0.00668780215445 
0.006934514737 0.00278090023131 -0.00830149700394 
0.00711789078716 0.00304936569202 -0.0100889478976 
0.00687263768466 0.00327605796091 -0.0122522650403 
0.00182546822624 0.000415601586468 -0.00177337071154 
0.00202915650054 -0.000335395897308 -0.00160406378624 
0.00205198597704 -0.000242487647188 -0.00158663680992 
0.00205646505727 -0.000126761777288 -0.00157962047677 
0.0020557672834 1.59026222396e-19 -0.00157853727771 
0.00205646505727 0.000126761777288 -0.00157962047677 
0.00205198597704 0.000242487647188 -0.00158663680992 
0.00202915650054 0.000335395897308 -0.00160406378624 
0.00581242499847 0.0022437457992 -0.0152943479699 
0.0058843073673 -0.00133688165354 -0.0156999270539 
0.00568692331557 -0.000739663025401 -0.0156285198783 
0.005544185549 -0.000336572895883 -0.0155645943574 
0.00549223315213 9.45408089939e-19 -0.0155380466962 
0.005544185549 0.000336572895883 -0.0155645943574 
0.00568692331557 0.000739663025401 -0.0156285198783 
0.0058843073673 0.00133688165354 -0.0156999270539 
-0.00597593248981 -0.00221210565423 -0.012586529333 
-0.00638398749242 -0.00228478538432 -0.0101923137593 
-0.00634546336876 -0.00211834800322 -0.00826410237252 
-0.00600181381755 -0.0018823484091 -0.00658385726621 
-0.0053837762235 -0.00161090635558 -0.00508829751432 
-0.00452836151276 -0.00130004801229 -0.00375076201042 
-0.00345457534425 -0.000906135862196 -0.00257904852687 
-0.00568701042181 -0.00134065904537 -0.0126354551389 
-0.00601724145624 -0.0014554800277 -0.0102752584641 
-0.0060076187169 -0.00139713133358 -0.0082987721007 
-0.00572166344703 -0.00125205805379 -0.00657042956434 
-0.0051684916261 -0.00106712068907 -0.00504209614215 
-0.00438893324214 -0.000847466693271 -0.0036931981157 
-0.00340411889996 -0.000593163015315 -0.00254962622316 
-0.00552098924201 -0.000634101017608 -0.0126403201243 
-0.00582975085089 -0.000704571777549 -0.0103119901462 
-0.00582406139137 -0.000688778648238 -0.00833670260451 
-0.00556291575785 -0.000623384989318 -0.00659011825567 
-0.00504579048313 -0.00053050692217 -0.00504605238644 
-0.00430771324833 -0.000419973685332 -0.00369387784672 
-0.00336654954026 -0.000297565402995 -0.00254934790023 
-0.00546767310322 -1.06163875333e-18 -0.0126380684875 
-0.00577061357931 1.24798806967e-19 -0.0103230616011 
-0.00576603155561 -8.96764700042e-19 -0.00835019413465 
-0.0055118818805 -1.65538413733e-18 -0.00660055377456 
-0.00500567130934 -3.36488853079e-19 -0.00505245918314 
-0.00428087857452 -6.92528604612e-19 -0.00369832187181 
-0.00335323553796 -8.2403032104e-19 -0.00255235049785 
-0.00552098924201 0.000634101017608 -0.0126403201243 
-0.00582975085089 0.000704571777549 -0.0103119901462 
-0.00582406139137 0.000688778648238 -0.00833670260451 
-0.00556291575785 0.000623384989318 -0.00659011825567 
-0.00504579048313 0.00053050692217 -0.00504605238644 
-0.00430771324833 0.000419973685332 -0.00369387784672 
-0.00336654954026 0.000297565402995 -0.00254934790023 
-0.00568701042181 0.00134065904537 -0.0126354551389 
-0.00601724145624 0.0014554800277 -0.0102752584641 
-0.0060076187169 0.00139713133358 -0.0082987721007 
-0.00572166344703 0.00125205805379 -0.00657042956434 
-0.0051684916261 0.00106712068907 -0.00504209614215 
-0.00438893324214 0.000847466693271 -0.0036931981157 
-0.00340411889996 0.000593163015315 -0.00254962622316 
-0.00597593248981 0.00221210565423 -0.012586529333 
-0.00638398749242 0.00228478538432 -0.0101923137593 
-0.00634546336876 0.00211834800322 -0.00826410237252 
-0.00600181381755 0.0018823484091 -0.00658385726621 
-0.0053837762235 0.00161090635558 -0.00508829751432 
-0.00452836151276 0.00130004801229 -0.00375076201042 
-0.00345457534425 0.000906135862196 -0.00257904852687 
-0.00672098944043 0.00330985732826 -0.0123783714562 
-0.0070331185821 0.00312313924467 -0.0101947363036 
-0.00686572992606 0.00282995779044 -0.00837436709646 
-0.00641981709837 0.00250513214974 -0.00675119521537 
-0.00571207680463 0.00215895429915 -0.00529530807583 
-0.00476382654486 0.00176867997355 -0.00399846795832 
-0.00354478047043 0.00129945119969 -0.00286154245301 
-0.00202105960021 0.000339208979084 -0.00161784145594 
-0.00204287682517 0.000245680927623 -0.0016003567987 
-0.00204672788893 0.000128490889447 -0.00159365308841 
-0.00204583599815 -8.01737984477e-19 -0.00159261400087 
-0.00204672788893 -0.000128490889447 -0.00159365308841 
-0.00204287682517 -0.000245680927623 -0.0016003567987 
-0.00202105960021 -0.000339208979084 -0.00161784145594 
-0.00180858766715 0.000415268038581 -0.00178179956389 
-0.0057407224869 0.00137602982245 -0.0156506838857 
-0.00554956986113 0.000763128194837 -0.0155885824487 
-0.0054088681598 0.000344503360804 -0.0155249575821 
-0.00535822967862 -4.51177134817e-19 -0.0154991657576 
-0.0054088681598 -0.000344503360804 -0.0155249575821 
-0.00554956986113 -0.000763128194837 -0.0155885824487 
-0.0057407224869 -0.00137602982245 -0.0156506838857 
-0.00564929682976 0.00224160491486 -0.0152559098738 
0.00581403505418 -0.000157624468666 -0.0215214769021 
0.00560144246561 -0.00010907896914 -0.0211795571081 
0.0054398354705 -6.49360335706e-05 -0.0209571676665 
0.00537853978391 -9.24782961751e-19 -0.0208806756313 
0.0054398354705 6.49360335706e-05 -0.0209571676665 
0.00560144246561 0.00010907896914 -0.0211795571081 
0.00581403505418 0.000157624468666 -0.0215214769021 
0.00438392737252 -0.00118733500413 -0.0248941771573 
0.00430640442507 -0.000686629365219 -0.0242964762479 
0.00418108791561 -0.000320393487023 -0.0239447944474 
0.00413230708848 2.71695826717e-18 -0.0238288409193 
0.00418108791561 0.000320393487023 -0.0239447944474 
0.00430640442507 0.000686629365219 -0.0242964762479 
0.00438392737252 0.00118733500413 -0.0248941771573 
0.00231614754041 -0.00180815876423 -0.0271155741125 
0.00230292993914 -0.00110121926037 -0.0263415168527 
0.00224680165706 -0.00051691912297 -0.0259037738989 
0.00222151337084 2.8984615459e-20 -0.0257601770536 
0.00224680165706 0.00051691912297 -0.0259037738989 
0.00230292993914 0.00110121926037 -0.0263415168527 
0.00231614754041 0.00180815876423 -0.0271155741125 
5.27177935631e-06 -0.0020111358661 -0.0278847444781 
8.61206647695e-06 -0.00123894272056 -0.0270572212178 
1.28289297327e-05 -0.000585723150791 -0.0265905985512 
1.43289704669e-05 2.27135793235e-18 -0.0264388165621 
1.28289297327e-05 0.000585723150791 -0.0265905985512 
8.61206647695e-06 0.00123894272056 -0.0270572212178 
5.27177935632e-06 0.0020111358661 -0.0278847444781 
-0.00229807404102 -0.00179002659084 -0.0271395857079 
-0.00227658373647 -0.00109112589278 -0.0263764267473 
-0.00221399025815 -0.000512381542617 -0.0259464533668 
-0.00218597593502 -2.1039008008e-19 -0.0258054366676 
-0.00221399025815 0.000512381542617 -0.0259464533668 
-0.00227658373647 0.00109112589278 -0.0263764267473 
-0.00229807404102 0.00179002659084 -0.0271395857079 
-0.00429732578875 -0.00114859881342 -0.0249231926034 
-0.00422312050455 -0.000668139701468 -0.0243501274542 
-0.00409426350982 -0.000312467279832 -0.0240087683318 
-0.00404451367597 -1.19259798791e-19 -0.0238955809693 
-0.00409426350982 0.000312467279832 -0.0240087683318 
-0.00422312050455 0.000668139701468 -0.0243501274542 
-0.00429732578875 0.00114859881342 -0.0249231926034 
-0.00559235353128 -8.63947733699e-05 -0.0214323579875 
-0.00538688945393 -6.69219312296e-05 -0.021108214589 
-0.0052254857847 -4.53095478687e-05 -0.0208953410837 
-0.00516527880618 -8.63939691794e-19 -0.0208218600029 
-0.0052254857847 4.53095478687e-05 -0.0208953410837 
-0.00538688945393 6.69219312296e-05 -0.021108214589 
-0.00559235353128 8.63947733699e-05 -0.0214323579875 
0.0052580265143 -0.000389114217188 -0.0219458096173 
0.00391480177528 -0.00182113594336 -0.0259244848444 
0.00207370156105 -0.00261300832446 -0.0284025805708 
1.02789321852e-05 -0.00287454013289 -0.029260649747 
-0.00204619726208 -0.00258657347536 -0.0284209937801 
-0.0038120911097 -0.00172983353311 -0.0259106993057 
-0.00500639579601 -0.000282536777988 -0.0218044569225 
0.00133405712492 -0.0001254553987 -0.000612399710005 
0.000776840096004 -0.000289107589967 -0.000227367686889 
0.000359105236842 -0.000343200329973 -5.00895327986e-05 
-6.7492943114e-07 -0.000356192898552 5.62363201721e-07 
-0.000361636092829 -0.000343513355711 -5.15691901017e-05 
-0.000783962166024 -0.000289552901447 -0.000234055465318 
-0.00134678271943 -0.000120946749438 -0.000631337428556 
0.00138143185622 -4.12273605374e-05 -0.000638831454164 
0.000841110610161 -0.000162225593488 -0.000287256573895 
0.000394571972967 -0.000221127271108 -0.00012141891672 
-1.33898027877e-06 -0.000236429038693 -7.17884662078e-05 
-0.000398544007258 -0.000220856071101 -0.0001231316317 
-0.000849195282482 -0.000161328243458 -0.000293958316124 
-0.00139448504988 -3.71640194823e-05 -0.000657001068733 
0.00139849430456 -1.11041511678e-05 -0.000649234396817 
0.000863957884737 -7.1940665917e-05 -0.000311774685188 
0.000412301642538 -0.000105979180939 -0.000154828340554 
-1.72618824814e-06 -0.000116414581307 -0.000108308896164 
-0.000416954793381 -0.000105684826548 -0.000156433989789 
-0.000872380476383 -7.12977036069e-05 -0.00031812218737 
-0.00141128540374 -8.7869254081e-06 -0.000666973654588 
0.00140196282326 1.51008412417e-19 -0.000651483070149 
0.000869874845997 -3.15447291151e-19 -0.000318475502712 
0.000416869243996 -2.46088051386e-19 -0.000164535199399 
-1.83074005024e-06 -1.57735865877e-19 -0.000119049115119 
-0.000421683909547 4.35435629266e-21 -0.000166072161093 
-0.000878367063447 -2.8664641157e-19 -0.000324721589265 
-0.00141475629241 -8.87349132543e-20 -0.000669077870996 
0.00139849430456 1.11041511678e-05 -0.000649234396817 
0.000863957884737 7.1940665917e-05 -0.000311774685188 
0.000412301642538 0.000105979180939 -0.000154828340554 
-1.72618824814e-06 0.000116414581307 -0.000108308896164 
-0.000416954793381 0.000105684826548 -0.000156433989789 
-0.000872380476383 7.12977036069e-05 -0.00031812218737 
-0.00141128540374 8.7869254081e-06 -0.000666973654588 
0.00138143185622 4.12273605374e-05 -0.000638831454164 
0.000841110610161 0.000162225593488 -0.000287256573895 
0.000394571972967 0.000221127271108 -0.00012141891672 
-1.33898027877e-06 0.000236429038693 -7.17884662078e-05 
-0.000398544007258 0.000220856071101 -0.0001231316317 
-0.000849195282482 0.000161328243458 -0.000293958316124 
-0.00139448504988 3.71640194823e-05 -0.000657001068733 
0.00133405712492 0.0001254553987 -0.000612399710005 
0.000776840096004 0.000289107589967 -0.000227367686889 
0.000359105236842 0.000343200329973 -5.00895327986e-05 
-6.7492943114e-07 0.000356192898552 5.62363201721e-07 
-0.000361636092829 0.000343513355711 -5.15691901017e-05 
-0.000783962166024 0.000289552901447 -0.000234055465318 
-0.00134678271943 0.000120946749438 -0.000631337428556 
0.00113347265215 -0.000311720475303 -0.00047410087583 
0.00068122596032 -0.00042694678967 -8.11679376711e-05 
0.000322608370048 -0.000461308724911 7.5359301339e-05 
-3.3969176965e-07 -0.000466628755899 0.000119259277443 
-0.000324441069804 -0.000462597238025 7.51289319039e-05 
-0.000686526037606 -0.000430280568166 -8.48621633435e-05 
-0.00114471977334 -0.000308201253512 -0.000493658428261 
0.0 0.0 0.0 
0.0 0.0 0.0 
0.0 0.0 0.0 
0.0 0.0 0.0 
0.0 0.0 0.0 
0.0 0.0 0.0 
0.0 0.0 0.0 
0.0 0.0 0.0 
0.0 0.0 0.0 
0.0 0.0 0.0 
0.0 0.0 0.0 
0.0 0.0 0.0 
0.0 0.0 0.0 
0.0 0.0 0.0 
0.0 0.0 0.0 
0.0 0.0 0.0 
0.0 0.0 0.0 
0.0 0.0 0.0 
0.0 0.0 0.0 
0.0 0.0 0.0 
0.0 0.0 0.0 
0.0 0.0 0.0 
0.0 0.0 0.0 
0.0 0.0 0.0 
0.0 0.0 0.0 
0.0 0.0 0.0 
0.0 0.0 0.0 
0.0 0.0 0.0 
0.0 0.0 0.0 
0.0 0.0 0.0 
0.0 0.0 0.0 
0.0 0.0 0.0 
0.0 0.0 0.0 
0.0 0.0 0.0 
0.0 0.0 0.0 
0.0 0.0 0.0 
0.0 0.0 0.0 
0.0 0.0 0.0 
0.0 0.0 0.0 
0.0 0.0 0.0 
0.0 0.0 0.0 
0.0 0.0 0.0 
0.0 0.0 0.0 
0.0 0.0 0.0 
0.0 0.0 0.0 
0.0 0.0 0.0 
0.0 0.0 0.0 
0.0 0.0 0.0 
0.0 0.0 0.0 
0.0 0.0 0.0 
0.0 0.0 0.0 
0.0 0.0 0.0 
0.0 0.0 0.0 
0.0 0.0 0.0 
0.0 0.0 0.0 
0.0 0.0 0.0 
0.0 0.0 0.0 
0.0 0.0 0.0 
0.0 0.0 0.0 
0.0 0.0 0.0 
0.0 0.0 0.0 
0.0 0.0 0.0 
0.0 0.0 0.0 
0.0 0.0 0.0 
0.0 0.0 0.0 
0.0 0.0 0.0 
0.0 0.0 0.0 
0.0 0.0 0.0 
0.0 0.0 0.0 
0.0 0.0 0.0 
0.0 0.0 0.0 
0.0 0.0 0.0 
0.0 0.0 0.0 
0.0 0.0 0.0 
0.0 0.0 0.0 
0.0 0.0 0.0 
0.0 0.0 0.0 
0.0 0.0 0.0 
0.0 0.0 0.0 
0.0 0.0 0.0 
0.0 0.0 0.0 
0.0 0.0 0.0 
0.0 0.0 0.0 
0.0 0.0 0.0 
0.0 0.0 0.0 
0.0 0.0 0.0 
0.0 0.0 0.0 
0.0 0.0 0.0 
0.0 0.0 0.0 
0.0 0.0 0.0 
0.0 0.0 0.0 
0.0 0.0 0.0 
0.0 0.0 0.0 
0.0 0.0 0.0 
0.0 0.0 0.0 
0.0 0.0 0.0 
0.0 0.0 0.0 
0.0 0.0 0.0 
0.0 0.0 0.0 
0.0 0.0 0.0 
0.0 0.0 0.0 
0.0 0.0 0.0 
0.0 0.0 0.0 
0.0 0.0 0.0 
0.0 0.0 0.0 
0.0 0.0 0.0 
0.0 0.0 0.0 
0.0 0.0 0.0 
0.0 0.0 0.0 
0.0 0.0 0.0 
0.0 0.0 0.0 
0.0 0.0 0.0 
0.0 0.0 0.0 
0.0 0.0 0.0 
0.0 0.0 0.0 
0.0 0.0 0.0 
0.0 0.0 0.0 
0.0 0.0 0.0 
0.0 0.0 0.0 
0.0 0.0 0.0 
0.0 0.0 0.0 
0.0 0.0 0.0 
0.0 0.0 0.0 
0.0 0.0 0.0 
0.0 0.0 0.0 
0.0 0.0 0.0 
0.0 0.0 0.0 
0.0 0.0 0.0 
0.0 0.0 0.0 
0.0 0.0 0.0 
0.0 0.0 0.0 
0.0 0.0 0.0 
0.0 0.0 0.0 
0.0 0.0 0.0 
0.0 0.0 0.0 
0.0 0.0 0.0 
0.0 0.0 0.0 
0.0 0.0 0.0 
0.0 0.0 0.0 
0.0 0.0 0.0 
0.0 0.0 0.0 
0.0 0.0 0.0 
0.0 0.0 0.0 
0.0 0.0 0.0 
0.0 0.0 0.0 
0.0 0.0 0.0 
0.0 0.0 0.0 
0.0 0.0 0.0 
0.0 0.0 0.0 
0.0 0.0 0.0 
0.0 0.0 0.0 
0.0 0.0 0.0 
0.0 0.0 0.0 
0.0 0.0 0.0 
0.0 0.0 0.0 
0.0 0.0 0.0 
0.0 0.0 0.0 
0.0 0.0 0.0 
0.0 0.0 0.0 
0.0 0.0 0.0 
0.0 0.0 0.0 
0.0 0.0 0.0 
0.0 0.0 0.0 
0.0 0.0 0.0 
0.0 0.0 0.0 
0.0 0.0 0.0 
0.0 0.0 0.0 
0.0 0.0 0.0 
-0.00543637566979 -0.000176692744816 -0.00621542082312 
-0.00557965506648 -0.000133188950816 -0.00625507433245 
-0.00568236380467 -7.11929591181e-05 -0.0062812191727 
-0.00571899992208 -1.2691064043e-18 -0.00629010299623 
-0.00568236380467 7.11929591181e-05 -0.0062812191727 
-0.00557965506648 0.000133188950816 -0.00625507433245 
-0.00543637566979 0.000176692744816 -0.00621542082312 
-0.00551211085096 -0.00010996868391 -0.0083966856026 
-0.00567356187541 -7.20638341517e-05 -0.00845107467846 
-0.00578277484806 -3.4561294469e-05 -0.00848019013337 
-0.00582065393644 1.18231696007e-18 -0.00848922647832 
-0.00578277484806 3.4561294469e-05 -0.00848019013337 
-0.00567356187541 7.20638341517e-05 -0.00845107467846 
-0.00551211085096 0.00010996868391 -0.0083966856026 
-0.00567121332275 -2.59249923837e-05 -0.0106815720717 
-0.00585195993629 4.95591792511e-06 -0.0107479086212 
-0.00596386232337 1.15661673437e-05 -0.0107752692736 
-0.00600069139653 3.31475259688e-18 -0.010782157944 
-0.00596386232337 -1.15661673437e-05 -0.0107752692736 
-0.00585195993629 -4.95591792511e-06 -0.0107479086212 
-0.00567121332275 2.59249923837e-05 -0.0106815720717 
-0.00588645686449 0.000140042392837 -0.013219125557 
-0.00608442028784 0.000144242088269 -0.0132741330183 
-0.00618613761719 9.21775910059e-05 -0.0132823331758 
-0.00621578369162 -3.26401292451e-18 -0.0132806920177 
-0.00618613761719 -9.21775910059e-05 -0.0132823331758 
-0.00608442028784 -0.000144242088269 -0.0132741330183 
-0.00588645686449 -0.000140042392837 -0.013219125557 
-0.00607789685354 0.000475775763158 -0.0161666848833 
-0.00628376588496 0.000409483977068 -0.0161519002526 
-0.00634904097748 0.000237333542238 -0.0161009259431 
-0.0063615392415 -2.39807765949e-18 -0.0160782596043 
-0.00634904097748 -0.000237333542238 -0.0161009259431 
-0.00628376588496 -0.000409483977068 -0.0161519002526 
-0.00607789685354 -0.000475775763158 -0.0161666848833 
-0.00614875776678 0.00113172278186 -0.0196840630938 
-0.00629768706497 0.000899534499385 -0.0194851602262 
-0.00627773793866 0.000485365736955 -0.0193189653879 
-0.00626438827269 -3.42712673745e-18 -0.019259908283 
-0.00627773793866 -0.000485365736955 -0.0193189653879 
-0.00629768706497 -0.000899534499385 -0.0194851602262 
-0.00614875776678 -0.00113172278186 -0.0196840630938 
-0.00579870929705 0.0024675036801 -0.0239297306922 
-0.00571301922596 0.00171765601573 -0.0232500563456 
-0.00561560433922 0.000865033082002 -0.0229110106412 
-0.00557447324088 -1.85524575918e-18 -0.0227990009263 
-0.00561560433922 -0.000865033082002 -0.0229110106412 
-0.00571301922596 -0.00171765601573 -0.0232500563456 
-0.00579870929705 -0.0024675036801 -0.0239297306922 
-0.00452805852045 0.00432296682527 -0.0296187201025 
-0.00440223913357 0.00268129051037 -0.0285723169122 
-0.0042785782301 0.001284136543 -0.0280061913077 
-0.00422944058244 -5.82998550089e-19 -0.0278421504629 
-0.0042785782301 -0.001284136543 -0.0280061913077 
-0.00440223913357 -0.00268129051037 -0.0285723169122 
-0.00452805852045 -0.00432296682527 -0.0296187201025 
-0.00234864473769 0.00553583986771 -0.0325465959862 
-0.00236453864766 0.00338832926121 -0.0310425877428 
-0.00228411462447 0.00159571890222 -0.0303302506096 
-0.00225290661885 -2.16137330976e-19 -0.0301228475752 
-0.00228411462447 -0.00159571890222 -0.0303302506096 
-0.00236453864766 -0.00338832926121 -0.0310425877428 
-0.00234864473769 -0.00553583986771 -0.0325465959862 
6.4059756397e-05 0.00588033790001 -0.0334731535885 
6.61065292792e-05 0.00364573923079 -0.031864067795 
6.77375011381e-05 0.00171321275581 -0.0310949619739 
6.83555632647e-05 -2.39488308797e-18 -0.0308711793784 
6.77375011381e-05 -0.00171321275581 -0.0310949619739 
6.61065292792e-05 -0.00364573923079 -0.031864067795 
6.4059756397e-05 -0.00588033790001 -0.0334731535885 
0.00247185737655 0.00553503271711 -0.0325199358761 
0.00249543611368 0.00338835663372 -0.0310173230736 
0.00241755950263 0.00159513174969 -0.0303032961842 
0.00238699227118 -6.78834041498e-20 -0.0300953089705 
0.00241755950263 -0.00159513174969 -0.0303032961842 
0.00249543611368 -0.00338835663372 -0.0310173230736 
0.00247185737655 -0.00553503271711 -0.0325199358761 
0.00465709867013 0.00432975134793 -0.029580628466 
0.0045291611532 0.0026793622843 -0.0285371690377 
0.0044058806959 0.00128248150639 -0.0279687420532 
0.00435673355815 -2.04844330382e-18 -0.0278042601898 
0.0044058806959 -0.00128248150639 -0.0279687420532 
0.0045291611532 -0.0026793622843 -0.0285371690377 
0.00465709867013 -0.00432975134793 -0.029580628466 
0.00600045743797 0.00245967609365 -0.0238760541589 
0.00590485381082 0.00171220755349 -0.0231942780917 
0.00580633283601 0.000861687098355 -0.0228555402329 
0.00576457250944 -1.9506027266e-18 -0.0227435102287 
0.00580633283601 -0.000861687098355 -0.0228555402329 
0.00590485381082 -0.00171220755349 -0.0231942780917 
0.00600045743797 -0.00245967609365 -0.0238760541589 
0.00630789679019 0.00111609184895 -0.0196301836623 
0.00645381301401 0.000891507261753 -0.019438213313 
0.00643162448888 0.000481576630782 -0.0192753489235 
0.0064178840659 -2.9256206513e-18 -0.0192171523257 
0.00643162448888 -0.000481576630782 -0.0192753489235 
0.00645381301401 -0.000891507261753 -0.019438213313 
0.00630789679019 -0.00111609184895 -0.0196301836623 
0.00621652593947 0.000466086573523 -0.0161344669895 
0.00642259059608 0.000404125063686 -0.0161266147719 
0.00648731558593 0.000235353206672 -0.0160786767357 
0.00649958785612 2.03682803365e-18 -0.0160567946045 
0.00648731558593 -0.000235353206672 -0.0160786767357 
0.00642259059608 -0.000404125063686 -0.0161266147719 
0.00621652593947 -0.000466086573523 -0.0161344669895 
0.00602178507287 0.000135216425276 -0.0132047802033 
0.00622057390813 0.000141221741946 -0.0132623488847 
0.00632296938484 9.09189773772e-05 -0.0132721056688 
0.00635277848596 2.08057730606e-18 -0.0132708978446 
0.00632296938484 -9.09189773772e-05 -0.0132721056688 
0.00622057390813 -0.000141221741946 -0.0132623488847 
0.00602178507287 -0.000135216425276 -0.0132047802033 
0.00580866485163 -2.74840650612e-05 -0.010671763991 
0.00598942881009 3.76579673449e-06 -0.0107390139346 
0.00610178119166 1.09480571856e-05 -0.0107668734191 
0.00613878365467 -1.97935593828e-18 -0.0107739445994 
0.00610178119166 -1.09480571856e-05 -0.0107668734191 
0.00598942881009 -3.76579673449e-06 -0.0107390139346 
0.00580866485163 2.74840650612e-05 -0.010671763991 
0.00565132895765 -0.000110365711455 -0.00838651015006 
0.0058124792719 -7.24560609707e-05 -0.00844154060718 
0.00592171457127 -3.48347055737e-05 -0.00847098215873 
0.00595963401195 -1.36045454429e-18 -0.00848013399054 
0.00592171457127 3.48347055737e-05 -0.00847098215873 
0.0058124792719 7.24560609706e-05 -0.00844154060718 
0.00565132895765 0.000110365711455 -0.00838651015006 
0.00557537612294 -0.000176645806699 -0.00620549570631 
0.00571837035258 -0.000133160202416 -0.0062457791286 
0.00582088999993 -7.11957162551e-05 -0.00627226223989 
0.00585746931121 -5.59665594466e-19 -0.00628125396332 
0.00582088999993 7.11957162551e-05 -0.00627226223989 
0.00571837035258 0.000133160202416 -0.0062457791286 
0.00557537612294 0.000176645806699 -0.00620549570631 
-0.00531231020768 -0.00020071109339 -0.00617082197375 
-0.00537401703411 -0.000142486217012 -0.00830996755907 
-0.005488399365 -6.60679903551e-05 -0.0105486874238 
-0.00561363908283 0.000110786401096 -0.0130630212881 
-0.00565520422592 0.000481763301901 -0.0160159495306 
-0.00545547190715 0.0012561067209 -0.0197036199359 
-0.00467718611916 0.0029605837773 -0.0243042598695 
-0.00352472008379 0.0066889787731 -0.0336930635028 
-0.00185508646972 0.00818181613627 -0.0369441611185 
6.53745603159e-05 0.00859236710337 -0.03801567497 
0.00198372500731 0.00818337678311 -0.0369163194346 
0.00362092258325 0.0066988582186 -0.0336688421951 
0.00492522055632 0.00291592976886 -0.0242138234069 
0.00562384688216 0.00122813306171 -0.0196324650941 
0.00579502705394 0.000470423154521 -0.0159806846801 
0.00575182977013 0.000105817119016 -0.0130477318996 
0.00562745926285 -6.77041821435e-05 -0.0105377011522 
0.00551395495982 -0.000142873590452 -0.0082985664401 
0.00545149300246 -0.000200790387002 -0.00615988478136 
-0.00529681340997 -0.00029417989724 -0.00399301394918 
-0.00541550719289 0.000274647615364 -0.00402173949674 
-0.00554342135117 0.000218781223988 -0.00405428094691 
-0.00563737663424 0.000120791105367 -0.00407629926806 
-0.00567136332165 -5.84671522877e-19 -0.00408387803681 
-0.00563737663424 -0.000120791105367 -0.00407629926806 
-0.00554342135117 -0.000218781223988 -0.00405428094691 
-0.00541550719289 -0.000274647615364 -0.00402173949674 
0.00555428786813 -0.000274507204241 -0.00401294700561 
0.00568196662392 -0.000218532387961 -0.00404615105872 
0.00577569881646 -0.000120618059102 -0.00406850141688 
0.00580960921387 -4.17451781831e-18 -0.00407617841921 
0.00577569881646 0.000120618059102 -0.00406850141688 
0.00568196662392 0.000218532387961 -0.00404615105872 
0.00555428786813 0.000274507204241 -0.00401294700561 
0.0054356332483 -0.000294204724535 -0.00398340951106 
-0.000839457321089 -0.000553294964983 -0.000968529682169 
-0.000912472405099 -0.000313392450576 -0.000969228826141 
-0.000943168343532 -0.000144320211413 -0.000970952905928 
-0.000952356110676 -4.78089003682e-20 -0.000973204739237 
-0.000943168343532 0.000144320211413 -0.000970952905928 
-0.000912472405099 0.000313392450576 -0.000969228826141 
-0.000839457321089 0.000553294964983 -0.000968529682169 
-0.00129573596564 -0.000884996698304 -0.00204838810589 
-0.00139691553645 -0.000534916788143 -0.00198243785302 
-0.00145216974441 -0.000251034697019 -0.00196517908495 
-0.00146808801533 -8.2402944216e-20 -0.00196056880967 
-0.00145216974441 0.000251034697019 -0.00196517908495 
-0.00139691553645 0.000534916788143 -0.00198243785302 
-0.00129573596564 0.000884996698304 -0.00204838810589 
-0.00183876671538 -0.000992632368322 -0.0030622409464 
-0.00195646677717 -0.000637096340189 -0.00299806213591 
-0.00201638379373 -0.000306841145511 -0.00295934802836 
-0.00203519326196 -3.47812102635e-19 -0.00294770420713 
-0.00201638379373 0.000306841145511 -0.00295934802836 
-0.00195646677717 0.000637096340189 -0.00299806213591 
-0.00183876671538 0.000992632368322 -0.0030622409464 
-0.0025293857497 -0.000969747126702 -0.00402834652442 
-0.00262412070951 -0.00063493596916 -0.00398280982592 
-0.00267512993949 -0.000312168169446 -0.00394152417774 
-0.00269073839903 -4.10611939083e-20 -0.00392605050703 
-0.00267512993949 0.000312168169446 -0.00394152417774 
-0.00262412070951 0.00063493596916 -0.00398280982592 
-0.0025293857497 0.000969747126702 -0.00402834652442 
-0.00336802205977 -0.000855870806545 -0.00490990187824 
-0.00341987731985 -0.000564689613715 -0.0048828543813 
-0.00344736003385 -0.000279890598446 -0.00484636207759 
-0.00345588346 -8.08109188049e-19 -0.00483131124803 
-0.00344736003385 0.000279890598446 -0.00484636207759 
-0.00341987731985 0.000564689613715 -0.0048828543813 
-0.00336802205977 0.000855870806545 -0.00490990187824 
-0.0043144072445 -0.000681396927281 -0.00565937417239 
-0.00430926337656 -0.000451692042372 -0.00564627383819 
-0.00430462066871 -0.00022508564719 -0.00561610946813 
-0.00430283026537 -1.01825525631e-18 -0.0056028654821 
-0.00430462066871 0.00022508564719 -0.00561610946813 
-0.00430926337656 0.000451692042372 -0.00564627383819 
-0.0043144072445 0.000681396927281 -0.00565937417239 
-0.00529754565382 -0.000473268989213 -0.00623154781697 
-0.00522799603094 -0.000317481394672 -0.00622864056144 
-0.00518706273741 -0.000159536544502 -0.00620532847203 
-0.00517356799142 -1.11712820017e-18 -0.00619447057455 
-0.00518706273741 0.000159536544502 -0.00620532847203 
-0.00522799603094 0.000317481394672 -0.00622864056144 
-0.00529754565382 0.000473268989213 -0.00623154781697 
-0.00622976002638 -0.000264736781803 -0.00659517500968 
-0.00609642910297 -0.000183215050244 -0.00660150706687 
-0.00601957607425 -9.38990185894e-05 -0.00658567891174 
-0.00599447014502 -1.3553978858e-18 -0.00657759131889 
-0.00601957607425 9.38990185894e-05 -0.00658567891174 
-0.00609642910297 0.000183215050244 -0.00660150706687 
-0.00622976002638 0.000264736781803 -0.00659517500968 
-0.00701444178323 -9.71725510682e-05 -0.00674091381914 
-0.00682635159114 -7.65600673556e-05 -0.0067546964709 
-0.00671851573357 -4.24820711582e-05 -0.0067469626511 
-0.00668345208172 -1.88144050123e-18 -0.00674206862086 
-0.00671851573357 4.24820711582e-05 -0.0067469626511 
-0.00682635159114 7.65600673556e-05 -0.0067546964709 
-0.00701444178323 9.71725510682e-05 -0.00674091381914 
-0.00757524564484 3.94037400805e-05 -0.00671765411722 
-0.00734489476815 1.402726415e-05 -0.00673850680833 
-0.00721266935397 2.07192460276e-06 -0.00674007196934 
-0.00716981804074 -1.71006377435e-18 -0.00673892817379 
-0.00721266935397 -2.07192460277e-06 -0.00674007196934 
-0.00734489476815 -1.402726415e-05 -0.00673850680833 
-0.00757524564484 -3.94037400805e-05 -0.00671765411722 
-0.00782426727417 0.000148286597757 -0.00654116601014 
-0.00756601052244 8.45642012406e-05 -0.00656987334946 
-0.00741862629887 3.65486855132e-05 -0.00658083536688 
-0.00737094581095 -1.51825899507e-18 -0.00658368738199 
-0.00741862629887 -3.65486855132e-05 -0.00658083536688 
-0.00756601052244 -8.45642012406e-05 -0.00656987334946 
-0.00782426727417 -0.000148286597757 -0.00654116601014 
-0.00768659980853 0.00023194211888 -0.00623772573545 
-0.00741571141984 0.000135811497673 -0.00627692041882 
-0.00726259439954 6.09749180672e-05 -0.0062981095534 
-0.00721345443643 -2.1734890242e-18 -0.00630452518285 
-0.00726259439954 -6.09749180672e-05 -0.0062981095534 
-0.00741571141984 -0.000135811497673 -0.00627692041882 
-0.00768659980853 -0.00023194211888 -0.00623772573545 
-0.00712836917524 0.000291530341176 -0.00583306573143 
-0.0068601602133 0.00017244678627 -0.00588530739221 
-0.00670926467058 7.84797066442e-05 -0.00591819196141 
-0.0066609265685 -2.4861034027e-18 -0.00592919675736 
-0.00670926467058 -7.84797066442e-05 -0.00591819196141 
-0.0068601602133 -0.00017244678627 -0.00588530739221 
-0.00712836917524 -0.000291530341176 -0.00583306573143 
-0.0061431181568 0.000320515408644 -0.0053808429775 
-0.00589025781187 0.000193817828174 -0.00544423459122 
-0.00574734243603 9.01014781611e-05 -0.00548620340011 
-0.00570141387307 -2.20933903194e-18 -0.00550056097946 
-0.00574734243603 -9.01014781611e-05 -0.00548620340011 
-0.00589025781187 -0.000193817828174 -0.00544423459122 
-0.0061431181568 -0.000320515408644 -0.0053808429775 
-0.00475448795556 0.00031935734826 -0.00494466254516 
-0.00452625163404 0.000200542790503 -0.00501401725263 
-0.00439471645644 9.58744167204e-05 -0.00506148530743 
-0.00435199404406 -1.75451439252e-18 -0.00507783551933 
-0.00439471645644 -9.58744167204e-05 -0.00506148530743 
-0.00452625163404 -0.000200542790503 -0.00501401725263 
-0.00475448795556 -0.00031935734826 -0.00494466254516 
-0.00302837134872 0.000297142556089 -0.004578556155 
-0.00282967899947 0.000196725900491 -0.0046472797757 
-0.00271092729689 9.75449096974e-05 -0.00469594650133 
-0.00267163665631 -2.33680280805e-18 -0.00471279502227 
-0.00271092729689 -9.75449096974e-05 -0.00469594650133 
-0.00282967899947 -0.000196725900491 -0.0046472797757 
-0.00302837134872 -0.000297142556089 -0.004578556155 
-0.00104943989792 0.000271785167145 -0.0043069032036 
-0.000880586603065 0.00019080379829 -0.00437099102565 
-0.000774226843415 9.84659063922e-05 -0.00441644706088 
-0.000738034755505 -1.99017913131e-18 -0.00443215642649 
-0.000774226843415 -9.84659063922e-05 -0.00441644706088 
-0.000880586603065 -0.00019080379829 -0.00437099102565 
-0.00104943989792 -0.000271785167145 -0.0043069032036 
0.00110479735087 0.000252772699406 -0.00412635555055 
0.00124824284006 0.000187722569676 -0.0041830091952 
0.00134499114225 0.000100407595246 -0.00422242016207 
0.00137902556888 -1.59163661039e-18 -0.00423604971161 
0.00134499114225 -0.000100407595246 -0.00422242016207 
0.00124824284006 -0.000187722569676 -0.0041830091952 
0.00110479735087 -0.000252772699406 -0.00412635555055 
0.0033367330617 0.000251467061756 -0.00403848073547 
0.00346473724895 0.000195847189941 -0.0040842177589 
0.00355719308174 0.00010743737729 -0.00411581815557 
0.00359048209496 -1.8412621029e-18 -0.00412669650427 
0.00355719308174 -0.00010743737729 -0.00411581815557 
0.00346473724895 -0.000195847189941 -0.0040842177589 
0.0033367330617 -0.000251467061756 -0.00403848073547 
0.00320630891752 -0.000279881572544 -0.0040071811485 
0.00093534399087 -0.000300459544215 -0.00409926150484 
-0.00126973859428 -0.000343784901871 -0.00428236717942 
-0.00330625951705 -0.000397733433309 -0.00455301156574 
-0.00509342949656 -0.000450116943391 -0.00490904330112 
-0.00652984976561 -0.000466932939457 -0.00533100446763 
-0.00753717420809 -0.000431190688923 -0.00576960699729 
-0.0080895269404 -0.000341091148082 -0.00616444566542 
-0.00820056300129 -0.000218660245527 -0.00646192281913 
-0.00790888297331 -7.02672214794e-05 -0.00662863447962 
-0.00729151517174 0.000112001688739 -0.00663853399804 
-0.00642847825005 0.000341608566799 -0.00647253142411 
-0.00539602695393 0.000629308759555 -0.00610318855649 
-0.00431138438544 0.000911283970603 -0.0055484148494 
-0.00327773885032 0.0011459128788 -0.00483580068539 
-0.00237475937821 0.00130061106035 -0.00400991804844 
-0.00164758758655 0.00134730728443 -0.00311921421568 
-0.00109562681426 0.00124294352004 -0.00220210388643 
-0.000744394781201 0.000979832980454 -0.00118356928533 
-0.00319708627 -0.000252446654115 -0.00404687433842 
-0.000962093114065 -0.000254099559247 -0.00413274250226 
0.00119811680541 -0.00027361022214 -0.00431459647894 
0.00318107151099 -0.000300124072189 -0.00459162657914 
0.00490276863967 -0.00032397168085 -0.00496582619225 
0.0062831400463 -0.000326441677834 -0.00540778710637 
0.00726105270635 -0.000297194383325 -0.00586668164583 
0.00780696532786 -0.000235177511043 -0.00627988525953 
0.00792625884201 -0.000147976966926 -0.00658842097723 
0.00765744636762 -3.57198973966e-05 -0.00676643666245 
0.00707363834267 0.000103788871962 -0.00678795433545 
0.00627037263121 0.000273192658849 -0.00663720569694 
0.00532213681748 0.000482501352109 -0.00626948683458 
0.00432561871321 0.00069039762733 -0.00568809552098 
0.00337134139968 0.000863492616926 -0.00492945238471 
0.00252982349715 0.000975468616722 -0.00404063057887 
0.00183819546709 0.000996420109238 -0.00306930453012 
0.00129559994581 0.000886904741772 -0.00205165110476 
0.000839206439174 0.000553928186146 -0.000970048408115 
-0.00332534592857 -0.000196736871017 -0.0040920703294 
-0.00110572028344 -0.000188982055922 -0.00418921593565 
0.00102896370819 -0.000192139586632 -0.00437874926415 
0.00298187344335 -0.000198498434428 -0.00466083193456 
0.00467331195161 -0.000203316695491 -0.00503566095817 
0.00602863279318 -0.000197268416721 -0.0054714794334 
0.00699144624051 -0.000175532779521 -0.00591927883825 
0.00753513904684 -0.000137261397005 -0.00631954972347 
0.00766742198879 -8.38544850995e-05 -0.00661758735552 
0.00742746176214 -1.12850194882e-05 -0.00678732992904 
0.00688655070914 8.10432393363e-05 -0.0068014719194 
0.00613861473533 0.000188850316572 -0.0066426034242 
0.00525511383761 0.000323354321808 -0.00626523495927 
0.00432325001655 0.000457186433322 -0.00567405045484 
0.00342556661907 0.000569289763198 -0.00490186618724 
0.00262631326431 0.000638356920649 -0.00399477176193 
0.00195688025212 0.000639241246496 -0.00300504430532 
0.00139708697586 0.000535912223228 -0.00198573399668 
0.000912602911291 0.000313904424913 -0.000970915679273 
-0.00341809161735 -0.000107936996965 -0.00412339322185 
-0.00120274835398 -0.000101148476807 -0.00422840462158 
0.000922408420546 -9.92303450273e-05 -0.00442408185386 
0.00286289672161 -9.85131843006e-05 -0.00470963874589 
0.00454114901237 -9.72153113581e-05 -0.00508342860186 
0.00588493350162 -9.16481179104e-05 -0.0055136665887 
0.00684003265533 -7.98662364311e-05 -0.00595231127035 
0.00738175666451 -6.13456179791e-05 -0.00634113118266 
0.00752026858523 -3.59337956695e-05 -0.00662854174768 
0.00729564830336 -5.84074902922e-07 -0.00678893079131 
0.00677950175299 4.48464408639e-05 -0.00679362354844 
0.00606276437488 9.67738432033e-05 -0.00662633543998 
0.00521549836614 0.000162390428628 -0.00624142634431 
0.00432004340688 0.000227686565898 -0.0056436151462 
0.00345417459234 0.000282042871919 -0.00486531448478 
0.00267804985227 0.00031372865171 -0.00395353440316 
0.00201709159524 0.000307775949764 -0.00296644030621 
0.00145247300789 0.000251490794776 -0.001968658236 
0.000943514332344 0.000144583540648 -0.000972740361217 
-0.00345149183236 2.88778734878e-18 -0.00413418975977 
-0.00123690631836 8.71219320624e-19 -0.00424195149866 
0.000886096755662 -2.65063461547e-18 -0.00443972855537 
0.00282345894984 8.94949193694e-19 -0.00472651625989 
0.00449821769686 3.33558462362e-19 -0.00509988250946 
0.00583878983501 1.31250727857e-18 -0.00552808547831 
0.00679157119032 4.01683868539e-19 -0.00596341522959 
0.00733257082352 7.26666329105e-19 -0.00634795988878 
0.00747288321591 1.0805665069e-18 -0.00663122013927 
0.00725297934198 1.31731620939e-18 -0.00678775082655 
0.0067447580222 1.22959831308e-18 -0.00678865771879 
0.00603803722737 2.97982716685e-19 -0.00661810844311 
0.00520242844936 -5.89098671064e-19 -0.00623039779946 
0.00431868385602 4.64202890095e-19 -0.00563028961546 
0.00346302818469 -1.30355775303e-18 -0.00485026586424 
0.00269383002076 -4.48274006728e-19 -0.00393810005864 
0.00203597614505 7.12522109317e-19 -0.00295487526579 
0.0014684289532 1.16483231355e-19 -0.00196410751662 
0.000952763487371 -8.04779333719e-20 -0.000975024289957 
-0.00341809161735 0.000107936996965 -0.00412339322185 
-0.00120274835398 0.000101148476807 -0.00422840462158 
0.000922408420546 9.92303450273e-05 -0.00442408185386 
0.00286289672161 9.85131843006e-05 -0.00470963874589 
0.00454114901237 9.72153113581e-05 -0.00508342860186 
0.00588493350162 9.16481179104e-05 -0.0055136665887 
0.00684003265533 7.98662364311e-05 -0.00595231127035 
0.00738175666451 6.13456179791e-05 -0.00634113118266 
0.00752026858523 3.59337956695e-05 -0.00662854174768 
0.00729564830336 5.84074902924e-07 -0.00678893079131 
0.00677950175299 -4.48464408639e-05 -0.00679362354844 
0.00606276437488 -9.67738432033e-05 -0.00662633543998 
0.00521549836614 -0.000162390428628 -0.00624142634431 
0.00432004340688 -0.000227686565898 -0.0056436151462 
0.00345417459234 -0.000282042871919 -0.00486531448478 
0.00267804985227 -0.00031372865171 -0.00395353440316 
0.00201709159524 -0.000307775949764 -0.00296644030621 
0.00145247300789 -0.000251490794776 -0.001968658236 
0.000943514332344 -0.000144583540648 -0.000972740361217 
-0.00332534592857 0.000196736871017 -0.0040920703294 
-0.00110572028344 0.000188982055922 -0.00418921593565 
0.00102896370819 0.000192139586632 -0.00437874926415 
0.00298187344335 0.000198498434428 -0.00466083193456 
0.00467331195161 0.000203316695491 -0.00503566095817 
0.00602863279318 0.000197268416721 -0.0054714794334 
0.00699144624051 0.000175532779521 -0.00591927883825 
0.00753513904684 0.000137261397005 -0.00631954972347 
0.00766742198879 8.38544850995e-05 -0.00661758735552 
0.00742746176214 1.12850194882e-05 -0.00678732992904 
0.00688655070914 -8.10432393363e-05 -0.0068014719194 
0.00613861473533 -0.000188850316572 -0.0066426034242 
0.00525511383761 -0.000323354321808 -0.00626523495927 
0.00432325001655 -0.000457186433322 -0.00567405045484 
0.00342556661907 -0.000569289763198 -0.00490186618724 
0.00262631326431 -0.000638356920649 -0.00399477176193 
0.00195688025212 -0.000639241246496 -0.00300504430532 
0.00139708697586 -0.000535912223228 -0.00198573399668 
0.000912602911291 -0.000313904424913 -0.000970915679273 
-0.00319708627 0.000252446654115 -0.00404687433842 
-0.000962093114065 0.000254099559247 -0.00413274250226 
0.00119811680541 0.00027361022214 -0.00431459647894 
0.00318107151099 0.000300124072189 -0.00459162657914 
0.00490276863967 0.00032397168085 -0.00496582619225 
0.0062831400463 0.000326441677834 -0.00540778710637 
0.00726105270635 0.000297194383325 -0.00586668164583 
0.00780696532786 0.000235177511043 -0.00627988525953 
0.00792625884201 0.000147976966926 -0.00658842097723 
0.00765744636762 3.57198973966e-05 -0.00676643666245 
0.00707363834267 -0.000103788871962 -0.00678795433545 
0.00627037263121 -0.000273192658849 -0.00663720569694 
0.00532213681748 -0.000482501352109 -0.00626948683458 
0.00432561871321 -0.00069039762733 -0.00568809552098 
0.00337134139968 -0.000863492616926 -0.00492945238471 
0.00252982349715 -0.000975468616722 -0.00404063057887 
0.00183819546709 -0.000996420109238 -0.00306930453012 
0.00129559994581 -0.000886904741772 -0.00205165110476 
0.000839206439174 -0.000553928186146 -0.000970048408115 
0.000744309973193 0.000980680031494 -0.00118565148962 
0.00109426494538 0.0012461158711 -0.00220641982066 
0.00164468287797 0.00135303248136 -0.00312758497855 
0.00237174479831 0.00130913839361 -0.00402396387135 
0.00327675398869 0.00115712454201 -0.0048575570202 
0.00431797948719 0.000924708389732 -0.00557947591181 
0.00541729770809 0.000642144825217 -0.00614329721362 
0.00646681522326 0.000352895850621 -0.0065158626323 
0.00734889525958 0.000121299949734 -0.00668455452217 
0.00799095757276 -6.53280812224e-05 -0.00667597692426 
0.00830419911886 -0.000218858864902 -0.00650681608298 
0.0082130212406 -0.000347230604001 -0.00620439272151 
0.0076732695259 -0.000439985975124 -0.00580221408276 
0.00667271196218 -0.000475806173931 -0.00535817054049 
0.00524436008718 -0.000457493607417 -0.00493090524864 
0.00346082825948 -0.00040265000169 -0.00456626753755 
0.0014185544372 -0.000345914278662 -0.0042900573358 
-0.000793324208609 -0.000301414694638 -0.00410567928183 
-0.00306700367803 -0.000280416571756 -0.00401624043557 
0.00389585296334 -0.000876069081914 -0.00348994847637 
0.00501962522201 -0.00116389020082 -0.00447540698228 
0.00589475461469 -0.00139822898981 -0.005592570745 
0.00654524871596 -0.00160879170888 -0.00686578544159 
0.0069178901092 -0.0018025964145 -0.00829517523433 
0.00696990451898 -0.00195554004251 -0.00990845480232 
0.00679113514395 -0.00188854162086 -0.0117691814007 
-0.0070354717996 -0.00170595761548 -0.0107569844902 
-0.00706303152522 -0.00175110956582 -0.00921858750378 
-0.00684909579629 -0.00164592363494 -0.00779316946592 
-0.0063609246032 -0.00148238439074 -0.00649186711864 
-0.00564324196474 -0.00129808120541 -0.0053344599157 
-0.0047423145005 -0.00109815597813 -0.00429257062621 
-0.00366564589356 -0.000822547949891 -0.00337602629963 
-0.0024876857545 -0.000173689114873 -0.0222292037274 
-0.00192119196636 0.000470699689078 -0.0260303679391 
-0.000888915839551 0.000853863529177 -0.0281897369836 
0.000298733027836 0.000942540201721 -0.0286266861474 
0.00146446467904 0.000760398534076 -0.0274448963742 
0.00244587602492 0.000410060246686 -0.0249954547265 
0.00339097355437 -0.000123486909618 -0.0215703985034 
0.00421152749869 -0.00091120740741 -0.0168969371966 
-0.00116809799139 -0.000167636117101 -0.00118843033528 
-0.000805028605975 6.93824520634e-05 -0.000457659288081 
-0.000524433621614 0.000207256811414 -0.000115532336618 
1.11277894149e-05 0.000202286585074 0.000113492705809 
1.01142205148e-05 0.000277930815425 7.52702361182e-05 
0.000273271900429 0.000262744121782 2.71906535831e-05 
0.00055928739562 0.000208456113972 -0.000130136161689 
0.000870553355586 6.48455997166e-05 -0.000490717316421 
-0.000204520827816 -0.000365660606841 -0.000499043231422 
-7.96274308088e-05 -0.000272449520661 -0.000374068654496 
-6.51259114902e-06 -0.000190020886015 -0.00027774947194 
3.61860768407e-05 -0.0001250475139 -0.000198838688599 
5.89114922153e-05 -7.61081131326e-05 -0.000131764617608 
6.31926052976e-05 -3.65457440761e-05 -6.57120872991e-05 
5.09899850171e-05 -8.84318092274e-06 -1.64933196587e-05 
2.84004479397e-05 8.13958216003e-06 1.40015525113e-05 
3.9552741205e-07 1.40029150744e-05 2.44759017262e-05 
-2.75496875119e-05 7.92915421412e-06 1.33813112707e-05 
-5.08551549756e-05 -9.46925217918e-06 -1.83594872392e-05 
-6.29722861798e-05 -3.82440305969e-05 -6.96573907048e-05 
-5.8271300219e-05 -7.8448116868e-05 -0.000136650702716 
-3.50005475703e-05 -0.000130837075148 -0.000209092147111 
8.71651411253e-06 -0.000197643174027 -0.000289457122086 
8.36807209996e-05 -0.000281663445287 -0.000389116318907 
0.000206714956077 -0.000369475231726 -0.000505203957633 
0.000422757997014 -0.000458285001545 -0.000643342209378 
0.00327590917518 0.000132343783472 -0.0062673300821 
0.00328136530864 3.1119008543e-05 -0.00845660891352 
0.00332923336734 -8.14237411363e-05 -0.0107130905907 
0.00338842475078 -0.000246531808504 -0.0132232197982 
0.00339882658289 -0.000517727558533 -0.0161388900084 
0.00312248393836 -0.00100615496196 -0.0196541677134 
0.0023951110664 -0.00183025887369 -0.0239344333452 
0.00157184861019 -0.0026173886742 -0.0285548044944 
0.000898579351955 -0.00325435882532 -0.0315087596771 
0.000103752890382 -0.00347597091403 -0.0325358649782 
-0.000686079877509 -0.00328039977111 -0.0317208312041 
-0.00131044827449 -0.00264278356053 -0.0288907382275 
-0.00199148282323 -0.0018490569249 -0.0242805639822 
-0.00272762264178 -0.0010401266387 -0.0199163497992 
-0.00312860182131 -0.000539203856528 -0.0162822224853 
-0.00323590271749 -0.000249099530595 -0.0132380834533 
-0.00320690569176 -7.83715534902e-05 -0.0106765657049 
-0.00314750924162 0.000133973371173 -0.00626530034915 
0.000950449937846 9.25840441487e-05 -0.00640573465666 
-0.00120101094996 6.57631719289e-05 -0.00647194787528 
-0.00315868801507 4.36853675507e-05 -0.00651277475401 
-0.00486253418299 3.06243465594e-05 -0.00648868368646 
-0.00625481773869 9.43204698267e-06 -0.00651606891102 
-0.0072320769102 -3.11315636512e-05 -0.00658753644146 
-0.00776086636161 -9.09605420747e-05 -0.00663551340136 
-0.00785407241663 -0.00016256939376 -0.00660049058616 
-0.00755513189491 -0.000244600336432 -0.00645553654287 
-0.00693804008534 -0.000336685546666 -0.00620650043254 
-0.00606970490636 -0.000447538361575 -0.00583863355431 
-0.00506098433042 -0.000569340519463 -0.00536447060296 
-0.00403138056474 -0.000689240314808 -0.00479422875295 
-0.00304925521063 -0.000792586233487 -0.00410902181476 
-0.00218241619055 -0.000857398068721 -0.00332560591195 
-0.0014720574793 -0.00085713099391 -0.00247740065046 
-0.000914430370381 -0.00075560533934 -0.00157948117369 
-0.000419599618637 -0.00045490173001 -0.000636572359028 
0.000919757159015 -0.000758998049361 -0.00159303708213 
0.00148738322118 -0.000863251345473 -0.00250854652643 
0.00221324082217 -0.000865651022888 -0.00338206048344 
0.00310379676223 -0.000799314772111 -0.00419979413749 
0.00411888475751 -0.000688468824228 -0.00491825942388 
0.00517268042466 -0.000556893630166 -0.00550411008081 
0.00618770028401 -0.000426881720097 -0.00595459448528 
0.00705193451389 -0.000311535417968 -0.00629068864273 
0.00766603978951 -0.000222377719526 -0.00650568707314 
0.00796034827249 -0.000151866453025 -0.00663110074562 
0.00786379599925 -9.43565110213e-05 -0.00667615221032 
0.00733050294729 -4.37905310375e-05 -0.00665480232345 
0.00635560489661 1.6134273632e-06 -0.00658060828754 
0.00496688438318 3.54224362598e-05 -0.00649624690546 
0.00324320412047 5.8219808944e-05 -0.0064304959337 
0.00125986778131 7.92990665779e-05 -0.00636277607764 
-0.000893558769128 0.00010252913977 -0.00630832200862 
0.00122395443356 -0.000175782099348 -0.00122119672651 
0.00628818309337 -0.00157941234032 -0.0131430753969 
-0.00599143139526 -0.00149037733776 -0.012712324719 
-0.00257596750767 -0.000580562852364 -0.00265699189797 
0.00259565244211 -0.000575196839185 -0.00264424079528 
0.00566178164252 -0.000875656655476 -0.00523677486881 
0.00724675645482 -0.00106284682462 -0.00689273659955 
0.00740778435664 -0.00156131032394 -0.00935324324998 
0.00716744321165 -0.00152660373498 -0.0104512468423 
0.00649213001496 -0.00140323014869 -0.0114352379673 
-0.00620702569076 -0.00124218378038 -0.0111244481721 
-0.00691608366728 -0.00135867310588 -0.0103730878081 
-0.00319587425299 -0.000810246407881 -0.0174857560268 
0.00252123853892 -0.000382205028694 -0.0212205889094 
0.00282165008974 -0.000735531482007 -0.0180873486794 
0.00492008876756 -0.00120850817442 -0.014125366427 
-0.00167319074117 -0.000406841761425 -0.00204047853826 
-0.000130550905773 7.26296323496e-05 -4.35666915225e-05 
-0.000149275266741 0.000186633736535 7.53346108961e-05 
0.000337268198815 0.000129641366068 -9.28067950477e-05 
0.000492408092573 2.12068371092e-05 -0.000400957451895 
0.000689995517824 -0.000130519457458 -0.000879097724195 
-0.000587264907241 -0.000626468992661 -0.00120844515216 
-0.000344339691405 -0.000490171590016 -0.000917390700089 
-0.000165247041879 -0.000351421536109 -0.000666253954596 
-4.89268596817e-05 -0.000225734925714 -0.000457325928176 
1.46736450022e-05 -0.000127422175589 -0.000286118806797 
4.1941935535e-05 -5.34803101845e-05 -0.000138047562974 
4.09565623819e-05 -1.62684230678e-06 -2.71064738364e-05 
2.41356244521e-05 2.91469791757e-05 4.00089010785e-05 
8.71654365112e-07 3.98220599554e-05 6.20339102153e-05 
-2.14370850142e-05 2.92207753507e-05 3.81261167913e-05 
-3.64302759727e-05 -2.99760141036e-06 -3.37798878595e-05 
-3.3655486768e-05 -5.72772116128e-05 -0.000153318528786 
-2.69732644526e-06 -0.00013443126031 -0.000310137201768 
6.68901941184e-05 -0.000236906817539 -0.000491189383767 
0.000196166463542 -0.000369336003034 -0.000721485068551 
0.000378371561328 -0.000506636981926 -0.000975244184212 
0.000609268340814 -0.000636305562101 -0.00124741301806 
0.000919872394821 -5.29677704623e-05 -0.00856402463216 
0.000901612131895 -0.000209524645214 -0.0108731350808 
0.000963677446433 -0.000384055408645 -0.0134275272189 
0.00113849229844 -0.000583040553807 -0.016226096647 
0.00105061971868 -0.000899135083962 -0.0196438058119 
0.000609467734552 -0.00128321155212 -0.0235161283369 
0.000216482804466 -0.0016234630199 -0.0272500691477 
9.22214049828e-05 -0.00188825083325 -0.0300935974928 
7.12142914469e-05 -0.00200388877438 -0.0312395522942 
4.90748413907e-05 -0.00192843424563 -0.030611366847 
-4.66997000207e-06 -0.00167534009562 -0.028179576707 
-0.000204337572096 -0.00130971380906 -0.0243803618286 
-0.000550120144538 -0.000931738791281 -0.0201944032467 
-0.000843595636217 -0.000604143978418 -0.0163919929063 
-0.000934590600798 -0.000365774632968 -0.013252920485 
-0.000907910135856 -0.000187001392968 -0.0106849161726 
-0.000876902623359 -3.75388337994e-05 -0.00842112643255 
-0.00132217479429 -0.000146940223134 -0.00863512296333 
-0.00324199674612 -0.000224126075097 -0.00845102709465 
-0.00494049999762 -0.000266246517047 -0.00799164758772 
-0.0063418532933 -0.000303441928842 -0.00760764520269 
-0.00727934654785 -0.000370775160957 -0.00741169772421 
-0.00775921452142 -0.000433022625288 -0.00718765978604 
-0.00780541204635 -0.000489913766603 -0.00689204764834 
-0.00747657937793 -0.000536489187771 -0.00651109117073 
-0.00682258318621 -0.0005768091085 -0.00603313669537 
-0.00588412771917 -0.000620200569986 -0.00545380616035 
-0.0047891279045 -0.000659404265118 -0.00481120977985 
-0.00368565539706 -0.000695685357648 -0.00415932459915 
-0.00267674992836 -0.000731550471295 -0.00346185198724 
-0.00181417388054 -0.00075152755101 -0.00272561311799 
-0.00112111015841 -0.000729126582718 -0.00196779762473 
0.00117260138655 -0.000739665078232 -0.00204189292107 
0.00191640894516 -0.000762157690536 -0.00284781587965 
0.0028320790122 -0.000740157441585 -0.00363302714642 
0.00390313198132 -0.000691044745001 -0.00437201301501 
0.00501042004188 -0.000632328508162 -0.00501956817023 
0.00606464728339 -0.000574007598109 -0.0055956628838 
0.00695646255647 -0.000527225238833 -0.00609551038204 
0.00760102163377 -0.000489795713992 -0.00652993246024 
0.00792170568837 -0.000466403599378 -0.00691302283364 
0.00785098014897 -0.000434369357444 -0.00724464061042 
0.00732779115413 -0.00038551221254 -0.00751727003341 
0.00635037755567 -0.00032880120722 -0.00778302110218 
0.00494920152898 -0.000257178209467 -0.00802286017939 
0.00323006135732 -0.000183674299481 -0.00823419220232 
0.00126428711778 -0.000109285651683 -0.00836288084748 
0.00167043140829 -0.000390737845835 -0.00200345070843 
0.00550970104403 -0.00123487111718 -0.0124845098708 
-0.00415579692359 -0.00104824334865 -0.013806720168 
-0.00248522051735 -0.000605310028531 -0.00294348969895 
0.0021399798636 -0.000542176066058 -0.00260790113528 
0.00314295568775 -0.00067486528836 -0.00333209639978 
0.00428166399902 -0.000844953505803 -0.00410551155507 
0.00657055332807 -0.000969500320905 -0.00603579492026 
0.00761845522462 -0.00113540319317 -0.00775929380127 
0.00765544122955 -0.00117061413141 -0.00862109757881 
0.00728069970808 -0.00114479334391 -0.00943588105622 
0.00635646986615 -0.00104178916511 -0.0102592271557 
-0.00486705066628 -0.000935166186858 -0.0115148662796 
-0.00645065552302 -0.000956182137728 -0.009731328324 
-0.00724658454862 -0.00114362308642 -0.00928576573168 
-0.00749067753544 -0.00124291335705 -0.00883947800586 
-0.00747394489771 -0.00127599342662 -0.00818542005675 
-0.00716044419244 -0.00122377406273 -0.00723955016717 
-0.00657675735322 -0.00112907038305 -0.00628389570635 
-0.00571729789171 -0.00101267226417 -0.00534202944272 
-0.00468123509323 -0.000884591933879 -0.00445984748076 
-0.00331095080206 -0.000704768145452 -0.00350323194812 
-0.00131470352631 -0.000465641900906 -0.0235163815979 
-0.0017220754935 -0.000734725500473 -0.0185451463022 
-0.000822326426814 -0.000194278763197 -0.0271699901695 
-0.000271482743445 -4.21468476016e-05 -0.0290360590758 
0.000323956029032 -2.3239369277e-05 -0.0291226171023 
0.000916701499641 -0.00012531048429 -0.0274461236244 
0.00152435354101 -0.000379578754412 -0.02382982388 
0.00175664522207 -0.000718228313349 -0.0193547477438 
0.00359677635202 -0.000936917086099 -0.0146505018064 
-0.00107006241992 -0.000341442630033 -0.00156240827666 
-0.0006574151661 -0.00013333783186 -0.000864242947719 
-0.000445430573854 2.48246966754e-05 -0.000366595508988 
-6.36593010301e-05 0.000119663001492 8.2469878619e-05 
6.73452620604e-06 0.000134346145989 0.000118394956845 
7.97029671629e-05 0.00011857881487 7.34930444134e-05 
0.00015298836624 6.93658187226e-05 -6.49801831009e-05 
0.000240842084233 -1.80893909274e-05 -0.000317498790868 
0.000377550239574 -0.000144435868684 -0.000674708001273 
0.00103075759745 -0.00031021776427 -0.00147686520644 
-0.0007835253331 -0.000589264917787 -0.00152184079804 
-0.000486475780306 -0.000434554892198 -0.00111992931444 
-0.000256868342293 -0.00027778354527 -0.000752304316352 
-0.000119662625389 -0.000143349479493 -0.000450234855519 
-4.94906538932e-05 -4.33612646808e-05 -0.000211323987914 
-2.1039433096e-05 2.72322353781e-05 -3.35217232319e-05 
-7.12939956112e-06 6.66518567141e-05 6.66088224864e-05 
2.86428745401e-06 7.9926987293e-05 9.73134200731e-05 
1.47537176562e-05 6.61109317318e-05 6.081603188e-05 
3.36681699191e-05 2.4629910876e-05 -4.87698517954e-05 
7.38851067145e-05 -4.72562185836e-05 -0.000239015815549 
0.000155874353473 -0.000151784432674 -0.000495650046558 
0.000316245620365 -0.000293483816404 -0.000832757569359 
0.000593821836936 -0.000456228018021 -0.00125587528902 
0.00089618407815 -0.000610206005089 -0.00166458847291 
-0.00135323694818 -0.000363472529246 -0.0109492263 
-0.00110747734959 -0.000551922112041 -0.0136556891468 
-0.000726662430869 -0.000690770239145 -0.0168891841848 
-0.000117118082711 -0.000815017179122 -0.0194242374044 
-0.000515988033311 -0.000834209959523 -0.0220153307045 
-0.000514179703995 -0.000901351142574 -0.0255076878976 
-0.000316556851344 -0.000932153583387 -0.0285629369622 
-1.98542960743e-05 -0.000940833483872 -0.0300127142562 
0.000270517017419 -0.000935587850991 -0.029710566734 
0.000546283783773 -0.000892574476879 -0.0276548155732 
0.000741304612398 -0.000843146701802 -0.0242385668753 
0.000800125670774 -0.000792412196931 -0.0201983098232 
0.000850322420541 -0.000663998961552 -0.0161411341901 
0.00104895064652 -0.000488449403103 -0.0129983957942 
0.00120963162679 -0.000299298390216 -0.0105162665546 
-0.00344294060282 -0.000561354894078 -0.0107304736848 
-0.00512713906293 -0.000554532980651 -0.00926126405087 
-0.00646244385087 -0.000630547819493 -0.00864492930875 
-0.00728964738334 -0.000751781618736 -0.00833216665458 
-0.00768050106096 -0.00081474470121 -0.00789828782241 
-0.00768110707908 -0.000857051442552 -0.00740504679347 
-0.00735532888681 -0.000858049555614 -0.00679923348567 
-0.00670220529431 -0.000833345494225 -0.006093225339 
-0.00573938552748 -0.000795036317601 -0.00531865634901 
-0.0044374092568 -0.000743831468749 -0.00441205712262 
-0.00320248794469 -0.000679239925578 -0.0036178601731 
-0.00220281488752 -0.000653297785742 -0.0028841134618 
-0.0014006837017 -0.000631139046216 -0.00218280424253 
0.00159438668188 -0.000650006563077 -0.00238523291741 
0.002539946376 -0.000677311089337 -0.00318658812267 
0.00367393379093 -0.000693744250298 -0.00399456840424 
0.00481812916594 -0.0007060180896 -0.00472179664429 
0.00588933487471 -0.000722335327032 -0.00540260306022 
0.00679610845549 -0.000747808627281 -0.00605907359989 
0.00745937689357 -0.000778734736707 -0.00670741069994 
0.00781076966722 -0.000801363124227 -0.0073408628199 
0.00778047946571 -0.000803181731228 -0.00794011290534 
0.00730062146672 -0.000770253580902 -0.00850801622935 
0.00630566308247 -0.00067920104373 -0.00904897052711 
0.00487221516073 -0.000571083719185 -0.00968083929935 
0.00315278584001 -0.000431263465985 -0.0101737466822 
-0.00163594369278 -0.000528157420831 -0.00227052668984 
-0.00268660044196 -0.000765379716571 -0.0138899290965 
0.00284450206198 -0.0006466888144 -0.0124345515934 
-0.000971509751695 -0.000481465031624 -0.0016516167257 
0.00123725683507 -0.000507178029949 -0.00192071810632 
-0.00315868237869 3.45834826108e-05 -0.00841998917203 
-0.00551621013291 -0.000821134712195 -0.010117946932 
-0.000592361408342 -0.000308020347149 -0.00111623270001 
-0.00033796546531 -0.000142515504525 -0.000641932169913 
-0.000208178474471 -1.48600435002e-05 -0.000287475857569 
0.000645046957903 -0.000309146054341 -0.00115737978294 
0.0023291074465 -0.000613479290133 -0.00288533587521 
0.00343978444007 -0.000691696588638 -0.00369450419614 
0.00458691526466 -0.000781019478669 -0.00446562641046 
0.00231301222218 -0.000761805574138 -0.0153877808581 
0.00145794015181 -0.000449743573422 -0.00200201214171 
-0.00382551914087 -0.00078978752651 -0.00375782302788 
0.00471558491585 -0.000898687269384 -0.0116317877052 
0.0062736984415 -0.00118735362668 -0.00591270536108 
0.00694235696966 -0.00134161647482 -0.00697325828256 
0.00732337305459 -0.00148362480225 -0.00815267890534 
-0.000298202723707 0.000130990955262 -6.83020966338e-05 
0.000171524926429 0.000185239000551 6.65219319144e-05 
0.00537667984052 -0.00102577253907 -0.00496861069726 
-0.000253202530793 0.000262858205057 3.34366658148e-05 
0.00384347297776 -0.000573732345845 -0.00339803427853 
0.00488452998496 -0.000770024550977 -0.00437837568838 
0.00569169863748 -0.000934105266261 -0.00551390996763 
0.0062828491826 -0.00107843505203 -0.00682129828728 
0.00660707518305 -0.00120084839688 -0.00830192552694 
0.00663447763444 -0.00127319400653 -0.0099744571761 
0.00651731012894 -0.0011814523923 -0.0118660130766 
-0.00675793139235 -0.00110861771786 -0.0108581985239 
-0.00674300138548 -0.00116019961177 -0.00925787674187 
-0.0065564491352 -0.00110294251206 -0.00777570265534 
-0.00611893794935 -0.000994542141745 -0.00643105366154 
-0.00546063029031 -0.000865704390114 -0.00524651298401 
-0.00462251799371 -0.000724802688063 -0.00419362882393 
-0.00362508029137 -0.00053945749991 -0.00328673825666 
-0.00252649332361 -0.00013297542104 -0.0218657385091 
-0.00199356760785 0.000289036364923 -0.0254249608195 
-0.000931758038545 0.000549626047879 -0.0274382942035 
0.000308685297169 0.000610353977238 -0.0278404341075 
0.00152058534743 0.000482343636422 -0.0267350424127 
0.00250916780945 0.000239040760796 -0.0244410990515 
0.00338254658753 -9.42494148241e-05 -0.0212350053601 
0.00414216865313 -0.000541720345235 -0.0167593904411 
-0.00123676091197 -0.000132066522828 -0.00116426599013 
-0.000882514505641 2.38217956615e-05 -0.000470962288232 
-0.000587819911203 0.000126151412757 -0.000159365523486 
1.26447358508e-05 0.000139251192691 6.61252799261e-05 
1.09230474258e-05 0.00018926364436 1.67852905881e-05 
0.000307023434108 0.000174709459125 -2.81508755497e-05 
0.000623772203108 0.000125253961934 -0.000173767695391 
0.000947107279597 1.89882801623e-05 -0.000503167182883 
-0.000236503967249 -0.000204800654779 -0.000471237193852 
-0.000108462974765 -0.000151277468582 -0.000347985366129 
-3.66194496382e-05 -0.000107556071848 -0.000258256575053 
5.77486993289e-06 -7.31121484666e-05 -0.000188247683048 
3.08493334619e-05 -4.3697465107e-05 -0.000125092274062 
4.07702966303e-05 -1.94196077385e-05 -6.41285529834e-05 
3.54307849677e-05 -2.79812444285e-06 -1.86072523665e-05 
2.03143190694e-05 7.20450412349e-06 9.40725781079e-06 
5.0813787581e-07 1.06641586695e-05 1.89477296463e-05 
-1.92675734609e-05 7.11701219626e-06 8.82834453769e-06 
-3.46085919706e-05 -3.03896266297e-06 -2.04299244886e-05 
-3.98148919696e-05 -2.02839781389e-05 -6.78354208437e-05 
-2.95598821959e-05 -4.49609407668e-05 -0.000129708870398 
-3.62761425103e-06 -7.62788602811e-05 -0.000197862984107 
3.97670686751e-05 -0.000111622343384 -0.000268971199578 
0.000113939033964 -0.000156530025168 -0.000362149988488 
0.000239562082923 -0.000206955321815 -0.000477133100492 
0.000462790422169 -0.000258707105176 -0.000618642678625 
0.0034145985036 9.99817470805e-05 -0.00630995813293 
0.0034347299544 2.31711686403e-05 -0.00850612928665 
0.00350532667756 -6.12993014963e-05 -0.0107640436015 
0.00360156227854 -0.000182529537985 -0.0132553108209 
0.00366314734132 -0.000377490224211 -0.0160934014763 
0.00345237041984 -0.000725642490949 -0.0194257248095 
0.00271994530391 -0.00124638049112 -0.0233220666222 
0.00185373927841 -0.00178732429187 -0.0274851762089 
0.00108805209486 -0.00217951536586 -0.0300988819504 
0.000113204287952 -0.00233787266617 -0.0310236641228 
-0.000857995670405 -0.00219768255013 -0.0302903093903 
-0.00159117372614 -0.00180109695168 -0.0277941647996 
-0.00233064368734 -0.00125380894166 -0.023647229911 
-0.00306809000483 -0.000741201809244 -0.0196631020808 
-0.00339650319285 -0.000387777324595 -0.0162254064916 
-0.00344912095243 -0.00018326507602 -0.013268598492 
-0.00338259521737 -5.93373869129e-05 -0.0107271117755 
-0.0032864461849 0.000101101310846 -0.00630732814742 
0.00110200532272 6.94339376272e-05 -0.0064500294826 
-0.00102799313294 4.65523144595e-05 -0.00651829909235 
-0.00295981648094 2.65311340737e-05 -0.00656202234775 
-0.00463777159083 1.35185710917e-05 -0.00654038999026 
-0.0060063768084 -4.35763308603e-06 -0.00656811496613 
-0.00696749084446 -3.30698025334e-05 -0.00663613691392 
-0.00749253537841 -7.169360648e-05 -0.00667931398041 
-0.00759801793524 -0.000117166711638 -0.00664124899082 
-0.00732829854699 -0.000170598309271 -0.00649609567956 
-0.0067545780351 -0.000230637009979 -0.00624730727086 
-0.00594025297786 -0.000303142178607 -0.0058779431495 
-0.0049912257648 -0.000382681199266 -0.0053980526067 
-0.00402051730435 -0.000461613474976 -0.00481559444507 
-0.00309005729049 -0.000529468532685 -0.00410979473891 
-0.00226114206252 -0.000568534234767 -0.00329711837881 
-0.00156845647216 -0.000555831440074 -0.00241497895332 
-0.00100115947523 -0.000459106653818 -0.00150057576772 
-0.00045882406359 -0.000256649509322 -0.000612123013896 
0.00100697792021 -0.000461333292695 -0.00151385576089 
0.00158511410324 -0.000559825543791 -0.00244593376289 
0.00229373361061 -0.000573643370987 -0.0033533158925 
0.00314592522569 -0.000533378736613 -0.00419998381217 
0.00410808262233 -0.00046044208599 -0.00493876083354 
0.00510138284704 -0.000374127794474 -0.0055366654627 
0.00605562741408 -0.000289922142683 -0.00599355251951 
0.00686581910389 -0.000214782444228 -0.00633199136747 
0.007437576302 -0.000156347719343 -0.00654760148543 
0.00770294188432 -0.000110549760955 -0.00667315610468 
0.00759471681027 -7.41831328488e-05 -0.00672117115653 
0.00706579689256 -4.13057911987e-05 -0.00670396221876 
0.0061066707368 -9.54330475527e-06 -0.00663255745394 
0.00474178701237 1.68887026291e-05 -0.00654795627192 
0.00304533740968 3.71450147349e-05 -0.00647969969292 
0.00108786098218 5.64679623173e-05 -0.00640887947011 
-0.0010444414887 7.66267997403e-05 -0.00635212900659 
0.00129005642917 -0.000137515691395 -0.00119608630992 
0.00613038582351 -0.000932438062543 -0.0132047910181 
-0.00585292313471 -0.000902193432635 -0.0127905715548 
-0.00258878162189 -0.000385962236654 -0.00258478481454 
0.00260851373471 -0.000381756650653 -0.00257324698296 
0.0055299261402 -0.000586621238441 -0.00517876029773 
0.0070089941664 -0.0007157328075 -0.0068687683579 
0.00711056913746 -0.00103216318965 -0.00940856839028 
0.00690846937787 -0.000990018884495 -0.0105530845199 
0.00631284830811 -0.000884603849627 -0.0115378210926 
-0.00603085768115 -0.000801905274311 -0.0112253983938 
-0.00667043901429 -0.000888561328091 -0.0104741390455 
-0.00316471152318 -0.000506500893728 -0.0173325412287 
0.00252746449446 -0.000246226212657 -0.0208982106516 
0.0027957735436 -0.000468873647985 -0.0179115378513 
0.00482484563475 -0.000733396248018 -0.0141353244836 
-0.00172718023688 -0.00027665839476 -0.00198113190036 
-0.00017836167157 4.97386628078e-05 -6.58795180279e-05 
-0.000177485666221 0.000127068788887 3.13287006179e-05 
0.000396572152043 8.27781483203e-05 -0.000123585417317 
0.000569769464763 5.65454377855e-06 -0.000408372666044 
0.000770774573551 -9.62692877496e-05 -0.000858208779266 
-0.000654577943082 -0.000378589210702 -0.00113034403155 
-0.000401327606764 -0.000294956798303 -0.000848509953101 
-0.000217509332852 -0.000210183372611 -0.000612061774881 
-0.000100993921393 -0.000135882054748 -0.000423618461092 
-3.4001622075e-05 -7.67067570748e-05 -0.000268309300279 
1.70089729043e-06 -2.96594866129e-05 -0.000133151313975 
1.2470193753e-05 3.05192221928e-06 -3.2763717221e-05 
9.64239034555e-06 2.22696148965e-05 2.76867149758e-05 
1.3056567905e-06 2.89904769999e-05 4.72426373812e-05 
-5.82188858716e-06 2.24198480604e-05 2.56980501056e-05 
-6.52876604941e-06 2.24348229686e-06 -3.91469388637e-05 
8.54858604374e-06 -3.22016180527e-05 -0.000147673188894 
4.78932537804e-05 -8.14275184285e-05 -0.000291153139765 
0.000120534081996 -0.000143142374135 -0.000455315627988 
0.000250909349962 -0.00022249105806 -0.000665500551435 
0.00043796587619 -0.000306920368074 -0.000904786569338 
0.00067810060417 -0.000385804729481 -0.00116842406196 
0.00108074112912 -3.29863861816e-05 -0.00861110205957 
0.00107591160633 -0.000139815900427 -0.0109147590127 
0.00115950710095 -0.000255641473582 -0.0134365713062 
0.00137695778573 -0.000393334004139 -0.0161445473304 
0.00133753189978 -0.000609387939185 -0.0193922883797 
0.000912334357032 -0.000855060694597 -0.0229711150522 
0.0004838413705 -0.00105632333687 -0.0264060606592 
0.000258614021524 -0.00122780661279 -0.0289932703083 
9.25376730777e-05 -0.00130382170667 -0.0300405645796 
-7.58900897943e-05 -0.00125518757756 -0.0294681491667 
-0.000244166396241 -0.00109016695942 -0.027268579926 
-0.000495328955139 -0.000867937455806 -0.023782087857 
-0.000831134702278 -0.000620050379456 -0.0199015878174 
-0.00107620696348 -0.000401352777331 -0.0163005697696 
-0.00112659481052 -0.000244559071994 -0.0132681856903 
-0.00108079570278 -0.000126136185365 -0.0107268723957 
-0.00103711211858 -2.27775283776e-05 -0.00846734213725 
-0.00114831574205 -9.90974394162e-05 -0.00868463672988 
-0.00304978825629 -0.000154277758553 -0.00850398720002 
-0.00472370025233 -0.000183561568532 -0.00804769784198 
-0.00610021641089 -0.000210350272465 -0.00766393948813 
-0.00701987738064 -0.000256938415851 -0.00746106652 
-0.00749366917317 -0.000297871006886 -0.00722677658124 
-0.00755102340183 -0.000334242349724 -0.00692085813394 
-0.00725089449898 -0.00036377277144 -0.00653040352798 
-0.00664015716954 -0.000389375171941 -0.00604598852756 
-0.00575689218699 -0.000417327065026 -0.00546187683042 
-0.00472222934346 -0.000443006331492 -0.00481611147904 
-0.00367600761813 -0.000467304592479 -0.00416047322384 
-0.0027131314859 -0.000491091113821 -0.00345001518367 
-0.00188117032518 -0.000500331380255 -0.00269056740208 
-0.00119964577452 -0.000473484120347 -0.00190486846418 
0.00125262798374 -0.00048157006765 -0.00197996037853 
0.00198338446198 -0.000508150301975 -0.00281560877921 
0.00286648590439 -0.000497068345179 -0.00362622940915 
0.00388842970717 -0.000464157191469 -0.00438145364036 
0.00493797549016 -0.000425067906938 -0.00503587341963 
0.00593381741534 -0.000387303028042 -0.00561473160674 
0.00677281495331 -0.000357249949108 -0.00611654071023 
0.00737454518483 -0.000333255605547 -0.00655467429318 
0.00766605741313 -0.000319020769291 -0.00694445316651 
0.00758513303248 -0.000298659794834 -0.00728597441945 
0.00707002316126 -0.000266130428549 -0.00756832052895 
0.00611104486173 -0.000227314122012 -0.00783931726245 
0.00473264258246 -0.000178031867025 -0.00807897306679 
0.00303738697725 -0.000125987515626 -0.00828627501964 
0.00109087909989 -7.29532196694e-05 -0.00841038995587 
0.00172488254328 -0.000266448757664 -0.00194607016057 
0.00537076486354 -0.000771611823882 -0.0125491294552 
-0.00405835835125 -0.000663118092788 -0.0138321671489 
-0.0025120076439 -0.000403124834808 -0.00287780261231 
0.00218099501674 -0.000360860102863 -0.00254304676546 
0.00314063374314 -0.000446942197771 -0.00325237300138 
0.00421762818082 -0.000560599725574 -0.00401403158281 
0.00638136705726 -0.00065196051251 -0.00598988595974 
0.00734949839266 -0.000763443413809 -0.00776693155944 
0.00737975578659 -0.000782961697504 -0.00866796471908 
0.00703283678459 -0.000756453621589 -0.0095183287841 
0.00615787093419 -0.000679819604578 -0.0103497125758 
-0.00470603157841 -0.000607597314697 -0.0115888055533 
-0.00623488775835 -0.000632444544106 -0.00981760627539 
-0.00698908692913 -0.000756959058736 -0.00936044980054 
-0.00721079406929 -0.000830780893451 -0.00889086631819 
-0.00718929306293 -0.000857718943976 -0.00820200241792 
-0.00690232408125 -0.000824440784331 -0.00721438826332 
-0.00636449071035 -0.000759673171769 -0.00622774442074 
-0.00556378312603 -0.000677978792351 -0.00526430896912 
-0.00459063439681 -0.000588436803176 -0.00437098377565 
-0.00329937653474 -0.00046833872803 -0.00342326891558 
-0.0013056802687 -0.000298108859671 -0.0230740118375 
-0.00165142652012 -0.000476654931081 -0.0183510785479 
-0.000837583823672 -0.000111586696269 -0.0264943191098 
-0.000284950829479 -3.55761164483e-06 -0.0282411895564 
0.000328982395531 9.45969362326e-06 -0.0283193230583 
0.000936572326866 -6.55634313174e-05 -0.0267451686498 
0.00153580712402 -0.000245071771569 -0.0233540522577 
0.00168320786253 -0.000466010312116 -0.019113496753 
0.0035138746524 -0.000599390731022 -0.0146359164448 
-0.00114048544723 -0.000231177598082 -0.00151534357096 
-0.000738270973746 -9.76680316047e-05 -0.000843469896697 
-0.000521666574339 8.99597995024e-06 -0.000375589218504 
-8.77478251448e-05 8.32469679057e-05 4.96172645042e-05 
8.14378711679e-06 9.37517160208e-05 8.23134718791e-05 
0.000106697530921 8.22988841574e-05 4.11989463797e-05 
0.000203497751583 4.71812690794e-05 -8.61770417999e-05 
0.000309186245447 -1.38684968595e-05 -0.000320090576276 
0.0004530250698 -9.83399305659e-05 -0.000656882519995 
0.00110310516902 -0.000211269491757 -0.00143361729159 
-0.000852015685599 -0.000381661188136 -0.00145972406901 
-0.000551412080935 -0.000280423160928 -0.00106614447147 
-0.000320925747481 -0.000178746337442 -0.000715806823149 
-0.000182026581658 -9.26632733215e-05 -0.000432351550783 
-0.000103440802306 -2.63990549837e-05 -0.000209956683304 
-5.96296199675e-05 2.11889998542e-05 -4.67819389605e-05 
-2.66268852323e-05 4.78391782338e-05 4.4504581506e-05 
3.91083841072e-06 5.68538051637e-05 7.22111877036e-05 
3.63692168393e-05 4.7477179301e-05 3.89535457974e-05 
7.46024825369e-05 1.93642619124e-05 -6.13070135428e-05 
0.000130472063462 -2.93701818599e-05 -0.000236784654936 
0.000220686771383 -9.89340675603e-05 -0.000476135028195 
0.000381964177955 -0.00019049434777 -0.000793489311624 
0.000660898004888 -0.000296862293556 -0.00120120978582 
0.000966647603686 -0.000397929415383 -0.00160368960808 
-0.00118526605095 -0.000239166889772 -0.010993297755 
-0.000936497627862 -0.000358481520867 -0.0136534732121 
-0.000542059411542 -0.000457337504543 -0.0167596260107 
8.88569334953e-05 -0.000544372060644 -0.0191658436996 
-0.000363153519742 -0.000539781113666 -0.0216104611004 
-0.00038778084586 -0.000565573111998 -0.0248984545257 
-0.000234853874884 -0.000578375629289 -0.0277392148787 
-3.53004584448e-07 -0.000583198840479 -0.0290813365592 
0.000226947255427 -0.000580734234126 -0.0288040719744 
0.000453605643567 -0.00056193778986 -0.02689661312 
0.000609015848943 -0.000544177552543 -0.0237039608644 
0.000637442337094 -0.000519410773023 -0.0199028841106 
0.000680681627873 -0.000434084600085 -0.0160507245799 
0.000880464862535 -0.000321701976861 -0.0130126158056 
0.0010385621584 -0.000199692766036 -0.0105600563078 
-0.00327200420197 -0.000371706053892 -0.0107909712488 
-0.00492349122595 -0.000370654868496 -0.00933021795412 
-0.00623102395674 -0.000424211034465 -0.00871477889415 
-0.00703470264421 -0.000507684719467 -0.00839102453249 
-0.00741432204848 -0.000549452147308 -0.00793668164245 
-0.00741966900442 -0.000578363209237 -0.00742015053208 
-0.00711968201508 -0.000579039534402 -0.00679205461011 
-0.00651041123603 -0.000561068123096 -0.00606711313841 
-0.00560639912794 -0.000533170668787 -0.00527972193008 
-0.00437666455504 -0.000497260210624 -0.00436408923844 
-0.00320470242392 -0.000454453100699 -0.00358116732603 
-0.00224520828262 -0.000437497028357 -0.00284747035075 
-0.00146479336558 -0.000419451177545 -0.00213639564189 
0.00165639156758 -0.000434189106716 -0.0023424478994 
0.00257394068467 -0.00045493255687 -0.00315906682302 
0.00366024088296 -0.000464849294259 -0.00397378738553 
0.00474689302986 -0.000473076302729 -0.00470183972259 
0.00575875108256 -0.000485295279948 -0.00538435594998 
0.00661112716486 -0.000503984874201 -0.00604653325398 
0.00722944374211 -0.000526042907351 -0.0067069525595 
0.00755161864483 -0.000541892625478 -0.0073594855164 
0.00751434662711 -0.000542536785097 -0.00798228723255 
0.00705115044412 -0.000518072193715 -0.00857208434983 
0.00608510000667 -0.000454617403092 -0.00912175583139 
0.0046777592716 -0.000382253856726 -0.00974726573377 
0.00297563628026 -0.000288305890186 -0.0102279456234 
-0.00169192506949 -0.000352356385248 -0.0022175370599 
-0.00256108310063 -0.000498444227032 -0.0138996736972 
0.00269698013834 -0.000424582791583 -0.0124673112973 
-0.0010388200744 -0.000318750970235 -0.00160201846745 
0.00130257866702 -0.00033834270499 -0.00187129973537 
-0.00331187245676 2.5368571467e-05 -0.00846878916482 
-0.00532097451723 -0.000540585698947 -0.0101985917939 
-0.000664278248681 -0.000204530506265 -0.00107790973359 
-0.00041191415286 -9.63388203198e-05 -0.000624558783596 
-0.000274544399071 -1.13279987997e-05 -0.000291107662442 
0.000717268441276 -0.000206681281293 -0.00111808266726 
0.00236610443696 -0.000410265794301 -0.00283770002302 
0.0034294095764 -0.000461243415218 -0.00364058740699 
0.00451777114446 -0.000521051121461 -0.00440582261572 
0.00219923400049 -0.000494030400843 -0.0153317386499 
0.00151853679064 -0.000301155544787 -0.00195045893757 
-0.00378277528913 -0.00052401989498 -0.00366852291886 
0.00456380841416 -0.000584665738672 -0.0117013065297 
0.00607819774131 -0.000796523275631 -0.00584083323465 
0.00669328174514 -0.000901286113619 -0.00693166665083 
0.00703520192975 -0.000991986007915 -0.00815417683747 
-0.000354739653894 8.49254154946e-05 -0.000100252202752 
0.000202363327306 0.000125613917869 2.32523483014e-05 
0.00524279976649 -0.000684342637323 -0.00487862683497 
-0.000285550906147 0.000175334914521 -2.21401536057e-05 
0.00380516231532 -0.000285191076585 -0.00337214658767 
0.0048077228474 -0.00038291093667 -0.00435153909631 
0.00557619648149 -0.000466948559118 -0.00549525315613 
0.00613481450587 -0.000539988510691 -0.00682232945611 
0.00643666433794 -0.000597351065448 -0.00832838436472 
0.00646197654934 -0.000622528861881 -0.0100156275749 
0.00636439684539 -0.000561690183445 -0.0118925040731 
-0.00661314734233 -0.000538034086162 -0.0109004784608 
-0.00657874614509 -0.000573780488494 -0.0092934251097 
-0.00639613754616 -0.000551340227207 -0.00778964285633 
-0.00598261668558 -0.000498378411827 -0.00642179680915 
-0.00535648412622 -0.000432289978491 -0.0052221361547 
-0.00455369438265 -0.000360140193267 -0.00416620947333 
-0.00359243846301 -0.000268724195767 -0.0032613732452 
-0.00245978106833 -6.54125898473e-05 -0.0216188507274 
-0.00195275095496 0.000133126593001 -0.0250672852705 
-0.000918275433898 0.000262049930586 -0.0270028582275 
0.00030548844446 0.000292525311084 -0.0273856784964 
0.00149738949365 0.000227070899426 -0.0263202499851 
0.00245344435095 0.000107763986605 -0.0241078856756 
0.00328965220891 -4.31490170136e-05 -0.0210023458412 
0.00404111551632 -0.000246626456853 -0.0166506452932 
-0.00125754937084 -7.14599537428e-05 -0.00115455986231 
-0.000910335583718 4.8615520881e-06 -0.000474713057908 
-0.000616990975531 5.78129074715e-05 -0.000174329513306 
1.3507479702e-05 7.06905448553e-05 4.61327206496e-05 
1.14165976516e-05 9.49422065287e-05 -9.94865490567e-06 
0.000326340423308 8.57185669764e-05 -5.2031365327e-05 
0.000652909897484 5.69897546597e-05 -0.000188759031634 
0.000973699764669 2.22135786226e-06 -0.000506937618658 
-0.000249730485962 -9.37011769377e-05 -0.000459427306432 
-0.000120095271358 -6.91912737567e-05 -0.000336945637227 
-4.93489386628e-05 -5.00539201785e-05 -0.000252303128517 
-7.45360828817e-06 -3.44893785425e-05 -0.00018413411216 
1.80332736925e-05 -2.03907022191e-05 -0.000121694271282 
2.96928271289e-05 -8.61707837246e-06 -6.2717358303e-05 
2.72961767232e-05 -5.25351722576e-07 -1.89464854377e-05 
1.59763428083e-05 4.29395110707e-06 7.8185789745e-06 
5.75397983857e-07 5.95787918627e-06 1.68811656766e-05 
-1.48128187155e-05 4.26434304807e-06 7.2671828818e-06 
-2.61101331855e-05 -5.99476058814e-07 -2.07110503272e-05 
-2.8389470836e-05 -8.98838399176e-06 -6.62875010584e-05 
-1.64891758725e-05 -2.09457402884e-05 -0.000126157161562 
1.00308620041e-05 -3.58379314475e-05 -0.000193306710669 
5.28927085723e-05 -5.17766556612e-05 -0.000262446546712 
0.000126152563677 -7.15290770663e-05 -0.000350528726899 
0.000253182141938 -9.46502186731e-05 -0.000465121368022 
0.000481943944472 -0.000119345067885 -0.000608224969694 
0.00351436048227 5.37662528827e-05 -0.0063391232096 
0.00354168646163 1.17232268549e-05 -0.00853242380332 
0.00362091298583 -3.42530422147e-05 -0.0107821962014 
0.00372665701872 -9.9842471771e-05 -0.0132509022565 
0.00379090997512 -0.000205453027517 -0.0160295310541 
0.00355436853392 -0.000384586513731 -0.0192468479698 
0.00279303756252 -0.000638081228531 -0.0229830602472 
0.00190242638421 -0.000894383819641 -0.027001294217 
0.00111229619037 -0.00108259169269 -0.0294854680283 
0.000115905341605 -0.00115816237942 -0.0303527495981 
-0.000879083052499 -0.0010920783386 -0.029669196678 
-0.00164213083857 -0.000902171578592 -0.0272973469122 
-0.00241126837469 -0.00064100368419 -0.0232967414032 
-0.00317711049944 -0.00039042545286 -0.0194741322971 
-0.00352649687839 -0.000209469086131 -0.0161552784929 
-0.00357415551121 -9.99779120765e-05 -0.0132631309303 
-0.00349785169406 -3.33289988598e-05 -0.0107451301939 
-0.00338642993423 5.43230853903e-05 -0.0063361840644 
0.00120366116027 3.71917761148e-05 -0.00648152082241 
-0.000920161982847 2.4091888605e-05 -0.00655222699614 
-0.00284289915834 1.22680537151e-05 -0.00659783458453 
-0.00451019522809 4.12587520439e-06 -0.00657696162377 
-0.00586821819666 -6.14938211582e-06 -0.00660276376612 
-0.00682072082412 -2.1042158608e-05 -0.00666586110721 
-0.00734246925243 -4.00045493831e-05 -0.00670293631492 
-0.00745312838998 -6.19908276882e-05 -0.00665956346443 
-0.00719851958287 -8.82359946606e-05 -0.00651054381969 
-0.00664896805638 -0.000117703919927 -0.00625809571821 
-0.005864827068 -0.000153330235421 -0.00588398772524 
-0.00494961249529 -0.000192331766386 -0.00539816878926 
-0.00401200999267 -0.0002311088472 -0.00480767351077 
-0.00311055415518 -0.000264141464846 -0.00409124978236 
-0.00230229044242 -0.000281429584149 -0.00326656534842 
-0.00161751151214 -0.000269429344636 -0.00237766687811 
-0.0010418633874 -0.00021632986934 -0.00147440270214 
-0.000477596307268 -0.0001183762452 -0.000601778731663 
0.00104800471015 -0.000217440527743 -0.00148762182153 
0.00163465014642 -0.000271382018339 -0.00240848622948 
0.00233565047308 -0.00028391287773 -0.00332246125229 
0.00316710320598 -0.000265958586153 -0.0041807550355 
0.00409958534473 -0.000230365696048 -0.00492974825414 
0.00505900200848 -0.000188000669498 -0.00553540251063 
0.00597894291416 -0.000146820756739 -0.00599865849269 
0.00675914627093 -0.000109995070218 -0.00634242452488 
0.0073071431494 -8.12789958446e-05 -0.00656219123065 
0.00755786277191 -5.88407590127e-05 -0.00669203909663 
0.00744473116806 -4.13032432994e-05 -0.00674542648349 
0.00691939956668 -2.51209918881e-05 -0.00673402537316 
0.00596849685836 -8.74701645971e-06 -0.00666714627922 
0.00461395245187 5.78829163905e-06 -0.00658463822222 
0.00292828501793 1.77624527678e-05 -0.00651586201585 
0.000980036126066 2.93402235589e-05 -0.00644299205607 
-0.0011461099094 4.09836571067e-05 -0.00638353949058 
0.00131005322726 -7.40249117695e-05 -0.00118651671129 
0.00600313086136 -0.000433051313041 -0.0131975676526 
-0.00574155391565 -0.000422170334315 -0.0127951678154 
-0.00258346489827 -0.000194960199536 -0.00256183131387 
0.00260326113129 -0.000192662584374 -0.00255062871744 
0.00545402050108 -0.000294357167986 -0.00515315510853 
0.00687618583058 -0.000360085220763 -0.00686559147323 
0.00695391448255 -0.000510201354985 -0.00944717667406 
0.00677304796148 -0.000481013029958 -0.0105969151089 
0.0062009474992 -0.00042101963876 -0.0115673828829 
-0.00592672608458 -0.000386515932809 -0.0112567983679 
-0.00654121684208 -0.000434206952809 -0.0105138827904 
-0.00308667818984 -0.000237099756031 -0.0172071787055 
0.00246143486598 -0.000119813616092 -0.0206752112322 
0.00272539692257 -0.000223476076559 -0.0177677179176 
0.0047257210223 -0.000341606549855 -0.014094827744 
-0.00174116674989 -0.000141079088477 -0.0019576428746 
-0.000202709329142 2.49759270258e-05 -7.25660900561e-05 
-0.00019301490837 6.38276404537e-05 1.37117589981e-05 
0.000424925611092 3.93321608279e-05 -0.000133275024781 
0.000602095172785 -7.81409862418e-07 -0.00040766476103 
0.000801626536017 -5.15539226261e-05 -0.000845664771839 
-0.000684719558451 -0.000178087857513 -0.00110236276453 
-0.000424640207581 -0.000138255632243 -0.000822675640147 
-0.000238785250009 -9.8311307319e-05 -0.000592264585938 
-0.000123860830406 -6.4035021071e-05 -0.000411751948518 
-5.63524230931e-05 -3.62702779631e-05 -0.000261204713347 
-1.7962704462e-05 -1.33892222015e-05 -0.00013045007235 
-2.2167424152e-06 2.69865414008e-06 -3.42776710261e-05 
1.95890579761e-06 1.2128762351e-05 2.32779419188e-05 
1.55402646689e-06 1.54335551195e-05 4.17455799823e-05 
2.48226964853e-06 1.22282114663e-05 2.13046685905e-05 
8.90427299889e-06 2.31835492483e-06 -4.04235027993e-05 
2.91487319288e-05 -1.46434643131e-05 -0.000144427470881 
7.10348851645e-05 -3.85865529487e-05 -0.000283424406753 
0.000144043625848 -6.75889686048e-05 -0.000442106399891 
0.000273254269355 -0.000104355125259 -0.000643834534288 
0.000462681201064 -0.000144265324737 -0.000877517123024 
0.000709191749498 -0.000181749939884 -0.00113971371196 
0.00118675870717 -1.59857099959e-05 -0.00863563954456 
0.00118892339153 -7.02311880627e-05 -0.0109268354246 
0.00128175507453 -0.000129129317122 -0.0134194015314 
0.00150861714073 -0.000201010992342 -0.0160655781162 
0.00147196844419 -0.000311479262629 -0.0192070525471 
0.00103632139261 -0.000433602219144 -0.0226518221168 
0.000586819596796 -0.000537057632868 -0.0259410202448 
0.00032243148828 -0.000622711121478 -0.0284099127241 
0.000101432758086 -0.00066035733263 -0.0294021095621 
-0.000124467145883 -0.000637452296438 -0.0288626008108 
-0.000338386838794 -0.000554191698142 -0.0267684460085 
-0.000618950327853 -0.000438652366263 -0.0234345284577 
-0.000966230183877 -0.000314054153743 -0.0196990066975 
-0.00120591213627 -0.000203505187233 -0.0162160157029 
-0.0012467498241 -0.000123745430918 -0.0132542457322 
-0.00119301061633 -6.37464134822e-05 -0.0107397162061 
-0.00114304846345 -1.09086199394e-05 -0.00849197876688 
-0.00104113658724 -4.95620071838e-05 -0.00870965095415 
-0.0029379408624 -7.80312182538e-05 -0.00853212892479 
-0.00460223247911 -9.33178872318e-05 -0.00807960242144 
-0.00596784809343 -0.000107339751079 -0.007696903219 
-0.00687828771567 -0.000131136983721 -0.00749150720903 
-0.00734715676884 -0.000151776911615 -0.00725157751772 
-0.00740818309513 -0.000169894082531 -0.0069382407477 
-0.00712244937595 -0.000184323601511 -0.00654072404433 
-0.00653512646741 -0.000196758302761 -0.00605035807364 
-0.00568241737884 -0.000210296879608 -0.00546139240946 
-0.0046813493155 -0.000222764767448 -0.00481176829343 
-0.00366684268462 -0.000234592486917 -0.00415137798845 
-0.0027295329119 -0.000245900362766 -0.00343222272946 
-0.00191434029316 -0.000248494992655 -0.00266133318417 
-0.00123817455473 -0.000229706076744 -0.00186775574994 
0.00129184970589 -0.0002340224582 -0.00194270166571 
0.00201676757362 -0.000252700614325 -0.00278723449151 
0.00288207729349 -0.000248996556177 -0.00361012528709 
0.00387675474996 -0.000233010989159 -0.00437509174261 
0.00489411990588 -0.000213802315345 -0.0050353609837 
0.00585730304315 -0.000195463129522 -0.00561825767225 
0.0066671585981 -0.000180896311139 -0.00612406755994 
0.00724579359283 -0.000169255334967 -0.00656725897108 
0.00752307623445 -0.000162375721551 -0.00696332016558 
0.00743910297844 -0.000152163023669 -0.00731189091921 
0.00692986256676 -0.000135549074424 -0.0075993124935 
0.00598032162363 -0.00011564955086 -0.00787194919966 
0.00461173354025 -9.06318187124e-05 -0.00811012623558 
0.00292473153914 -6.38821749285e-05 -0.00831458604229 
0.000983194898999 -3.64982544909e-05 -0.00843584529205 
0.00173900044482 -0.000136144159127 -0.00192417069163 
0.00527199749582 -0.000364965810409 -0.0125488661751 
-0.00397116376857 -0.000316159762428 -0.0138015346216 
-0.00251651490447 -0.000202005566807 -0.00284705171999 
0.00219150584002 -0.000181079931857 -0.00251395396858 
0.00312934743159 -0.000223109801279 -0.0032205342636 
0.00417698091578 -0.000279386527099 -0.00397941930683 
0.00627414072183 -0.000327843601695 -0.00597226661677 
0.00720228467474 -0.000383238548117 -0.00778224031976 
0.00723339110577 -0.000390699387102 -0.00870183880524 
0.00690246253104 -0.000373717336512 -0.00956165101584 
0.00604800144498 -0.000331724555565 -0.0103859479638 
-0.004609133533 -0.000294927257087 -0.0116043607047 
-0.00611943003528 -0.000311823612357 -0.00985754776258 
-0.00685327626341 -0.000375024110371 -0.00940310734228 
-0.00706623955194 -0.000414702451752 -0.00892801211234 
-0.00703729054086 -0.000430422570115 -0.00822322624256 
-0.00675965948264 -0.000414627660697 -0.0072145053231 
-0.00624520933527 -0.000381880677714 -0.00620921293483 
-0.00547651376956 -0.00033969727072 -0.00523373044851 
-0.00453723119156 -0.000293921775504 -0.00433660721794 
-0.00328392821597 -0.000234083217589 -0.00339066044262 
-0.00125572080958 -0.000146443817588 -0.0227825695966 
-0.00157683383672 -0.0002334945407 -0.0181991765785 
-0.000811036383597 -5.20117453999e-05 -0.0260887293643 
-0.000277578805297 2.14135150628e-06 -0.0277678654904 
0.000320581806904 8.49132964162e-06 -0.0278423867547 
0.000911416687306 -3.08114130927e-05 -0.0263268399343 
0.00148810463927 -0.000120438400394 -0.0230539890924 
0.0016082229574 -0.000228537000148 -0.0189363979928 
0.00343302495255 -0.000287523040703 -0.0145816523562 
-0.00116639117356 -0.00011744776514 -0.00148998914921 
-0.000769380789741 -5.20328734844e-05 -0.000830473009936 
-0.000554056688425 1.19503949743e-06 -0.000375268104245 
-0.000100759233305 4.25827456187e-05 3.68201511314e-05 
8.92549901588e-06 4.81345061971e-05 6.75027373472e-05 
0.000121212849223 4.19978203831e-05 2.87651572847e-05 
0.000228991947109 2.35173628488e-05 -9.21895060157e-05 
0.000340996580407 -7.8773783803e-06 -0.000316924436618 
0.000485966742616 -4.99412172949e-05 -0.000643158611016 
0.00112969876235 -0.000107952098577 -0.00141025929709 
-0.000883027357906 -0.000184846512773 -0.00142433180315 
-0.000579168060143 -0.000135526049565 -0.00103575769065 
-0.000349172542892 -8.62631560531e-05 -0.000694726811068 
-0.000211177256063 -4.49172169807e-05 -0.000421372163851 
-0.00012994508253 -1.23745261203e-05 -0.000206358993475 
-7.97508989076e-05 1.15011039087e-05 -5.03767374057e-05 
-3.71857344643e-05 2.50124567157e-05 3.619243451e-05 
4.49011189007e-06 2.95821220918e-05 6.22487482471e-05 
4.8069502407e-05 2.48151497643e-05 3.08386648211e-05 
9.58816614575e-05 1.05421598528e-05 -6.43853093859e-05 
0.000158176588723 -1.39813543065e-05 -0.000232529789097 
0.00025096739057 -4.82080570932e-05 -0.000463831848866 
0.000410889116879 -9.2442707526e-05 -0.000770693141679 
0.000689879686508 -0.000144578159588 -0.00116926836365 
0.000998632300685 -0.000193771166329 -0.00156767089575 
-0.0010798258363 -0.000118618800674 -0.0110060312915 
-0.000831525168554 -0.000178028241829 -0.0136281298814 
-0.000433316189947 -0.000227706050288 -0.016655271752 
0.000203951185228 -0.000271447886637 -0.0189861906341 
-0.000265425092343 -0.000268978744573 -0.0213503923164 
-0.000309071647361 -0.000278165932424 -0.0245218091891 
-0.000185041794861 -0.00028279654025 -0.0272481670978 
1.11861159577e-05 -0.000285518571886 -0.0285311976989 
0.000199376765086 -0.000284661011171 -0.0282669783632 
0.000392570682062 -0.000275357334531 -0.0264424644169 
0.000523617337969 -0.000269870695038 -0.023373295865 
0.000535655620298 -0.000258014981399 -0.0197017987244 
0.000574374549828 -0.000215084033532 -0.0159663847106 
0.000775320841216 -0.000159513236126 -0.0129990739865 
0.00093223722087 -9.9547614226e-05 -0.0105747147594 
-0.00317066916923 -0.000183988435073 -0.0108103071996 
-0.00481058651063 -0.000184504633306 -0.00936193438477 
-0.00610615524996 -0.000212085229386 -0.00875184922687 
-0.00689790584405 -0.000254670727816 -0.00842679669544 
-0.00726944619674 -0.000276875091776 -0.00796398543165 
-0.0072755538052 -0.000291820997994 -0.00743539870633 
-0.00698750542225 -0.0002920896585 -0.00679359891634 
-0.00640160494726 -0.000282591096482 -0.00605664092389 
-0.00552961844978 -0.000267929535746 -0.00526102904469 
-0.00433895998859 -0.000249250902305 -0.00433996872415 
-0.00319991048716 -0.00022773832528 -0.00355878310736 
-0.00226209863698 -0.000218968881101 -0.0028219331187 
-0.00149357173469 -0.000208260399434 -0.00210473640156 
0.00168436485939 -0.000216252485997 -0.00231232009611 
0.00258727038224 -0.000228146445978 -0.00313747412566 
0.00364795372622 -0.000233298454929 -0.0039581685431 
0.00470342710607 -0.000237535644626 -0.00468881380541 
0.00568292157357 -0.000244175577896 -0.00537401759933 
0.00650569088922 -0.000254094377261 -0.00604144172458 
0.00710032197149 -0.000265516739098 -0.00671089418969 
0.00740872061214 -0.000273424297031 -0.00737578252119 
0.00737064468104 -0.000272979352462 -0.00801124819706 
0.00691808078059 -0.000259113841681 -0.00860884814582 
0.00596546034604 -0.000226285646155 -0.00915744592789 
0.00456887837671 -0.000190254355425 -0.0097754289259 
0.00287079360487 -0.000143590956276 -0.0102480810077 
-0.00171245545968 -0.000176598298653 -0.00218732939977 
-0.00247225249335 -0.000244066398416 -0.0138675274039 
0.00260281283443 -0.000209408003371 -0.0124618818568 
-0.00106679545709 -0.000158282105312 -0.00157081574312 
0.0013290560838 -0.000169041635156 -0.00184033802259 
-0.00341871750416 1.27755447687e-05 -0.00849482993524 
-0.00521371056607 -0.000266037266879 -0.010231056015 
-0.000694392955718 -0.000102014774037 -0.0010532695553 
-0.000444618833829 -4.86743802592e-05 -0.000611236926402 
-0.000305684345778 -6.38325419923e-06 -0.000288530191848 
0.000747423030811 -0.000103361180963 -0.00109300242738 
0.00237828901958 -0.000205593317577 -0.00281034563976 
0.00341738354488 -0.000230780720584 -0.00361368597354 
0.00447511224194 -0.000260874548673 -0.00437813809661 
0.00211389603001 -0.000242207935566 -0.015263145143 
0.00153985006972 -0.000151793435718 -0.0019229189016 
-0.00375185900068 -0.00026124719247 -0.00363620591209 
0.0044708825358 -0.000284552921917 -0.0117134113516 
0.00596743684369 -0.00039952264922 -0.00581681960541 
0.00655369022626 -0.00045243639897 -0.00692638974176 
0.00687771549104 -0.000495608669677 -0.00817324374692 
-0.000382294441276 4.08392720162e-05 -0.000110387419887 
0.000219251642423 6.28900051023e-05 6.03028172979e-06 
0.00516642578072 -0.000342147923091 -0.00484519980049 
-0.000304233421114 8.62497041695e-05 -4.61702077241e-05 
0.00379155333588 2.10496372789e-19 -0.00336686054944 
0.00478203738626 4.57567260145e-19 -0.00434704741792 
0.00553879782266 5.194644616e-19 -0.00549366137641 
0.00608719255736 8.89779883552e-19 -0.00682666198889 
0.00638299378941 1.15951055661e-18 -0.00833931056754 
0.00640738316982 6.38436298139e-19 -0.0100280597196 
0.00631312423367 -1.89465719305e-20 -0.0118968360076 
-0.00656592305026 -1.78777356719e-18 -0.0109113260815 
-0.00652711611537 -7.46990260153e-19 -0.00930570316993 
-0.00634575332612 -1.11215219179e-18 -0.00779722307033 
-0.00593869468933 -1.4121168203e-18 -0.00642279178444 
-0.00532262825153 -1.10435269287e-18 -0.00521860995807 
-0.00453052430692 -1.21640049777e-18 -0.00416137169765 
-0.00358059739937 -1.11581183269e-18 -0.00325606971698 
-0.00242839251389 6.12572738529e-20 -0.0215333280237 
-0.0019295130249 -5.78676117798e-19 -0.0249460139146 
-0.000908290568993 -3.60073271608e-20 -0.0268586567888 
0.000303042252925 1.4187739828e-18 -0.0272351740835 
0.0014819491476 1.70892040395e-18 -0.0261823997937 
0.0024254392813 1.16617711536e-18 -0.0239944630804 
0.00325083121665 3.93023907911e-19 -0.0209219134639 
0.00400116111674 -8.8657962516e-19 -0.0166113464872 
-0.00126214663268 -3.95167856662e-19 -0.00115161882819 
-0.000917246972798 -2.84032499832e-19 -0.00047546704628 
-0.000624902136656 -2.14054698605e-19 -0.000178194177586 
1.37719358738e-05 -4.55455823471e-20 4.08923305281e-05 
1.15683653254e-05 -7.02871263864e-20 -1.73776678619e-05 
0.000331859514021 -9.55100733863e-20 -5.84005133615e-05 
0.000660711698845 -2.91909504929e-19 -0.000192675303649 
0.000980281387874 9.05561145471e-20 -0.000507747662433 
-0.000253524043301 -1.84396580413e-20 -0.000456992266606 
-0.000123288239879 1.56941494608e-20 -0.000334595047971 
-5.29798955397e-05 1.30760206866e-20 -0.00025105536607 
-1.1188807723e-05 1.05028707671e-20 -0.000183243296106 
1.43658392053e-05 -3.49713903752e-20 -0.000120863271833 
2.64195104106e-05 -3.99721522688e-20 -6.22847319416e-05 
2.48047333219e-05 -2.65808532366e-20 -1.89509342512e-05 
1.46205570505e-05 -2.74671611071e-20 7.48487068951e-06 
5.98419636048e-07 -1.56140938871e-20 1.64194089354e-05 
-1.34165373724e-05 2.21945725383e-21 6.94433896376e-06 
-2.35035836054e-05 1.48601704575e-23 -2.06883807625e-05 
-2.50090279662e-05 -3.68211177872e-20 -6.58059062728e-05 
-1.27387370128e-05 -3.7611748972e-20 -0.000125257499111 
1.39419745391e-05 4.86787607539e-20 -0.000192305152678 
5.66007804079e-05 -6.90730797021e-20 -0.000261045503745 
0.000129501015946 9.113566483e-20 -0.000347983932588 
0.000257073010647 9.85484661038e-20 -0.000462613382275 
0.000487152517069 -2.84299651503e-19 -0.000606527117753 
0.00355008672092 -1.40498607106e-18 -0.00634918545539 
0.00357934646784 -2.19211497963e-18 -0.00854056841399 
0.00366029078992 -1.80471510501e-18 -0.0107861783562 
0.00376659511167 1.47693631838e-18 -0.0132453899172 
0.00382566321361 1.4725880787e-18 -0.0160025413268 
0.00357723640674 -2.53614775221e-18 -0.0191854490836 
0.00280146269915 -7.40079734822e-19 -0.0228782673338 
0.00190321844289 -1.94459739535e-18 -0.0268498851254 
0.00111184397195 -2.789181888e-18 -0.029301532018 
0.000116267082216 -9.63549608339e-20 -0.0301558268009 
-0.000878147732073 -2.45768594879e-19 -0.0294831124739 
-0.00164361283021 -1.96219111339e-18 -0.0271428536377 
-0.00242218705 -5.53703948695e-19 -0.0231887132399 
-0.00320201559692 -1.8309080376e-18 -0.0194096965602 
-0.00356203574324 -1.03522439483e-18 -0.0161265882492 
-0.0036141193338 -1.89677167349e-19 -0.013257233878 
-0.00353710536003 1.91549826708e-18 -0.0107490586347 
-0.0034222323007 1.44508463353e-18 -0.00634614622379 
0.00123928858932 -2.37178164598e-18 -0.0064924994193 
-0.000883595959356 -1.89014770485e-18 -0.00656411017124 
-0.0028043367146 -1.8432324342e-18 -0.00661037214638 
-0.0044689044611 -1.86519508759e-18 -0.00658968312925 
-0.00582397498027 -1.44783387169e-18 -0.00661462886361 
-0.00677384487301 -1.24310956522e-18 -0.006675829423 
-0.00729451952361 -1.63225440965e-18 -0.00671055826819 
-0.00740652572165 -1.49558804243e-18 -0.00666483277903 
-0.00715650656654 -1.48415102969e-18 -0.00651388161833 
-0.00661455764051 -1.21990652865e-18 -0.0062595865433 
-0.00584011060901 -1.33130795652e-18 -0.00588341608015 
-0.00493579439207 -9.82811904769e-19 -0.00539532364517 
-0.00400887812205 -7.16189207768e-19 -0.00480203235817 
-0.00311671829806 -5.58148286729e-19 -0.00408232048865 
-0.00231489799693 -6.78578717338e-19 -0.003254755485 
-0.00163227864827 -3.90922171222e-19 -0.00236633874041 
-0.00105402121994 -1.74095743865e-19 -0.00146700179836 
-0.000482707153996 -1.21842139533e-19 -0.00060010436556 
0.00106027592286 1.16073589544e-19 -0.00148019878423 
0.00164954990603 4.54346787527e-20 -0.00239712849178 
0.00234847200924 -3.01403990629e-19 -0.00331053748154 
0.00317348331078 -3.27417143914e-19 -0.00417156607878 
0.00409646393082 -3.58430529686e-19 -0.00492371141068 
0.00504494862686 -3.9129385966e-19 -0.0055320634392 
0.00595386984121 6.98393554262e-19 -0.00599774275446 
0.00672447697362 1.10704215431e-18 -0.00634374218249 
0.00726499462014 8.29537973901e-19 -0.00656550757214 
0.00751131093938 1.12817072369e-18 -0.00669747121586 
0.00739681314793 3.64181774313e-19 -0.00675319426418 
0.00687272663165 3.36904459638e-19 -0.00674410968751 
0.0059243116887 7.41918557324e-19 -0.00667899118882 
0.00457260286025 8.01386225921e-19 -0.00659737385012 
0.00288962158738 3.07223983659e-18 -0.0065285267999 
0.000943371208151 1.21055401105e-19 -0.00645496889563 
-0.0011817926166 1.77911350316e-18 -0.00639451276804 
0.00131441038788 4.62866075752e-19 -0.00118364033083 
0.00595764451511 -4.40170979779e-20 -0.0131902679776 
-0.00570122733818 -1.36583080468e-18 -0.012791735366 
-0.00258034693133 -5.32288436506e-19 -0.00255621638244 
0.0026002051664 9.77030713619e-20 -0.00254507232814 
0.00542919299989 3.82366306104e-19 -0.00514644428396 
0.00683353274402 1.34715208417e-18 -0.00686653714971 
0.0069048732108 6.74067723411e-19 -0.00945991904882 
0.00672884957798 1.0577913295e-18 -0.0106088389949 
0.00616122886151 -1.89872020082e-19 -0.0115725637132 
-0.00589012319123 -1.20422359783e-18 -0.0112629214292 
-0.00649922874674 -7.23633574787e-19 -0.0105244923329 
-0.00305392464733 -1.20770706218e-18 -0.0171620462212 
0.00243104085154 -3.11538966154e-19 -0.0205969379553 
0.00269485987074 -6.34148917627e-19 -0.0177159414273 
0.00468840337657 -9.35743932048e-19 -0.0140774738444 
-0.00174383786462 -5.90990071233e-19 -0.00195083926749 
-0.00020989364403 -1.57993323419e-19 -7.37898285e-05 
-0.000197707728314 -8.07508173479e-20 9.29633062895e-06 
0.000432977339587 -4.68827101137e-20 -0.000135371764812 
0.000610718532152 2.03437930762e-19 -0.000407030515609 
0.000809447440608 8.1800459462e-20 -0.000841626802445 
-0.000693296775933 -1.91046770033e-19 -0.00109434087551 
-0.00043114592413 -1.14711268311e-19 -0.000815333761177 
-0.000244668285278 -1.01379924728e-19 -0.000586718410018 
-0.000130366672985 -1.14478558131e-19 -0.000408377925188 
-6.28465271159e-05 -8.75294429143e-20 -0.000258933942259 
-2.38045980451e-05 -8.33894625135e-20 -0.000129372844717 
-6.71145647188e-06 -7.46802737339e-20 -3.44028286338e-05 
-4.38952798975e-07 -4.21601534353e-20 2.22847285857e-05 
1.63401945369e-06 -3.12730017379e-20 4.04276985948e-05 
5.07634772808e-06 -3.19475004806e-20 2.03258436631e-05 
1.36222107896e-05 -1.69088480344e-21 -4.04622581173e-05 
3.52545532177e-05 7.84836720009e-21 -0.000143180546641 
7.77630759687e-05 -6.13519214096e-21 -0.000280936527648 
0.000150716707558 8.10999861172e-21 -0.000438235720661 
0.000279411868527 9.01627513918e-20 -0.000637666132987 
0.000469585785067 1.87817465e-20 -0.000869689459753 
0.000718073487857 -8.47789655956e-20 -0.00113144547622 
0.00122366872937 -2.41583009281e-18 -0.00864314682655 
0.00122781249884 -5.58897712364e-19 -0.0109287410355 
0.00132261088737 -4.67139394194e-19 -0.0134099219686 
0.00154992518495 4.06017571166e-19 -0.0160341520325 
0.00151013885313 -2.60411759673e-19 -0.019142562227 
0.00106978653297 -1.31283965008e-18 -0.0225480680827 
0.00061274687101 -1.74944894524e-18 -0.0258006952357 
0.00033684283537 -1.42426604847e-18 -0.028235249572 
0.000103453430674 -9.50078144882e-19 -0.0292130285612 
-0.000135280575209 8.5464383607e-19 -0.0286815897401 
-0.00036249049812 1.39171421016e-18 -0.0266169513374 
-0.000652522453625 5.40415292154e-19 -0.0233215635184 
-0.00100506254274 -1.32917667398e-18 -0.0196290415924 
-0.00124697750173 -3.15428782985e-20 -0.0161828681429 
-0.00128711839583 1.49774491588e-19 -0.0132457225715 
-0.00123166901498 1.76029772917e-18 -0.0107419224679 
-0.0011799463101 1.97951703171e-18 -0.00849964824058 
-0.00100475164362 -3.56214029441e-18 -0.00871727504708 
-0.00290104918483 -2.51295267725e-18 -0.00854091640094 
-0.00456296821147 -1.90189698797e-18 -0.0080898756043 
-0.00592562380792 -1.82808869588e-18 -0.00770785913711 
-0.00683331872979 -1.93584075799e-18 -0.00750175167577 
-0.00730045300545 -1.3019679119e-18 -0.00726003206421 
-0.00736235567307 -1.73463476086e-18 -0.00694411471884 
-0.00708090202265 -1.58189783823e-18 -0.00654391559034 
-0.00650092640648 -1.51333876969e-18 -0.00605117724645 
-0.00565792526604 -1.22977065745e-18 -0.00546024220368 
-0.00466761825135 -1.39458944473e-18 -0.0048089364032 
-0.00366320840207 -7.78227391818e-19 -0.00414656251417 
-0.00273402992367 -7.02565108486e-19 -0.0034244732931 
-0.00192413546127 -4.66126020193e-19 -0.00265044895089 
-0.00124940956067 -3.63652443344e-19 -0.00185664472559 
0.00130328139736 -1.30320500897e-19 -0.00193147103846 
0.00202664357453 -2.51409433715e-19 -0.00277649126199 
0.00288639994842 -7.67097040135e-20 -0.00360274243531 
0.00387237575817 -4.88105992879e-19 -0.00437086743644 
0.00487945861165 2.94796727159e-19 -0.0050333614493 
0.00583218680972 1.90343771525e-19 -0.00561800339158 
0.00663278923187 8.80532211099e-19 -0.00612563161415 
0.00720421031664 1.20818982546e-18 -0.00657100732036 
0.00747730853357 1.1770165418e-18 -0.00696960010826 
0.00739270123441 5.14299545855e-19 -0.0073206952765 
0.0068853894054 7.26825819867e-19 -0.0076096889038 
0.00593864678025 1.31938637104e-18 -0.00788268612523 
0.00457267980342 -1.04448075268e-18 -0.00812014332307 
0.00288755216602 3.81672508365e-19 -0.00832355347784 
0.000946643961782 2.41220797231e-18 -0.00844381386698 
0.00174175430506 7.5278398826e-20 -0.00191778918087 
0.00523548082744 -4.09823946152e-19 -0.0125438368551 
-0.0039385394726 -8.44577943051e-19 -0.0137865854863 
-0.00251631652042 -4.58566959614e-19 -0.00283800023341 
0.00219307388118 -3.82074259649e-19 -0.00250539616341 
0.00312417192192 2.64405142101e-19 -0.00321214754887 
0.0041626960214 3.68456747116e-19 -0.00397089345139 
0.00623945440391 1.0247850653e-18 -0.00596833138684 
0.00715553005412 1.02923901931e-18 -0.00778904027054 
0.0071873479191 1.10501631144e-18 -0.00871352113154 
0.00686109388423 7.48100905222e-19 -0.00957467785351 
0.00601140733686 2.05355212638e-19 -0.0103952121282 
-0.00457548590474 -8.71282418996e-19 -0.0116050966919 
-0.00608213149388 -1.83127540919e-18 -0.00986881719621 
-0.00681044466734 -1.32650392417e-18 -0.00941628262469 
-0.00702108178408 -2.03537549804e-18 -0.00894073231946 
-0.00698981667367 -1.09863902034e-18 -0.00823191574373 
-0.00671430920924 -1.0740661339e-18 -0.00721697753847 
-0.00620673833971 -1.68028419309e-18 -0.00620587501999 
-0.00544810492393 -1.34183369411e-18 -0.00522650942575 
-0.00451929022822 -7.91498832662e-19 -0.004328138149 
-0.00327754287178 -8.21784473978e-19 -0.0033819484087 
-0.0012321962689 -1.49579028809e-18 -0.0226815452961 
-0.00154726594437 -7.98620133953e-19 -0.0181439686904 
-0.000796474652498 -6.85313347236e-19 -0.0259526414564 
-0.000272517873847 -9.33731815208e-19 -0.0276108427603 
0.000316007952947 3.80319034088e-19 -0.0276839621223 
0.000897030550452 4.07800041989e-21 -0.0261875438685 
0.0014645877008 1.39863872648e-19 -0.0229515465314 
0.00157874139677 1.8140550598e-18 -0.0188730165186 
0.00340173592286 3.95722377865e-19 -0.0145588900294 
-0.00117268433439 -4.30421958327e-19 -0.00148197836997 
-0.00077728574427 -5.07715488678e-19 -0.000826273477964 
-0.000562778333563 -2.89666510994e-19 -0.000374694683338 
-0.000104734225739 -9.82024307657e-20 3.37250242327e-05 
9.16750037013e-06 -4.97732604526e-20 6.37551387351e-05 
0.000125636323843 -4.4045839273e-20 2.57786613948e-05 
0.000236485304793 -9.75134789805e-21 -9.32222900725e-05 
0.000349997567655 6.35453717495e-20 -0.000315311738158 
0.000495042447775 -1.02437833801e-19 -0.000638496691204 
0.00113617939055 -5.72943084068e-19 -0.00140290475367 
-0.000891697646855 -2.64603537817e-19 -0.00141373536568 
-0.000586718966592 -2.9873687276e-19 -0.00102665688883 
-0.000356997991435 -2.31178348642e-19 -0.000688342412929 
-0.000219526264098 -2.41958147402e-19 -0.000417845284218 
-0.000137704617763 -1.62955497115e-19 -0.000204888844151 
-8.58026330856e-05 -1.02842225358e-19 -5.09371665866e-05 
-4.04379199082e-05 -8.15179498179e-20 3.42360831626e-05 
4.67176760152e-06 -5.49506420677e-20 5.97950898591e-05 
5.16713894723e-05 -2.19889923067e-20 2.89531266027e-05 
0.000102269925139 -1.75852475154e-20 -6.47761854071e-05 
0.000166257549027 -1.42210186611e-19 -0.000230821289272 
0.000259561674948 -2.14775143838e-20 -0.000459907906051 
0.000418887973152 -5.85780293865e-20 -0.000763736637096 
0.000697812053347 1.16987591809e-19 -0.00115949866234 
0.00100762696452 1.3289238152e-21 -0.00155669722323 
-0.00104389488484 4.69060314371e-19 -0.0110079755049 
-0.000796045731591 -3.18880938553e-18 -0.0136155537895 
-0.000397384847433 4.64793613374e-19 -0.0166160141335 
0.000240306601234 -8.50451271136e-20 -0.0189228312397 
-0.000233308641369 -7.0948459871e-19 -0.0212611653134 
-0.000283061648462 -1.27023664321e-18 -0.0243964176664 
-0.000168597762265 -1.09944015769e-18 -0.0270882088755 
1.49737529431e-05 -5.17197573131e-19 -0.0283527147627 
0.000190040932703 3.50324301854e-19 -0.0280924986848 
0.000372152232882 3.3571828264e-19 -0.0262937565203 
0.000495079665092 3.43223344036e-19 -0.0232629264031 
0.000501504848954 3.31369328871e-19 -0.019631104423 
0.000538615357893 5.64578556166e-20 -0.0159336260765 
0.000739547973749 2.0239516491e-18 -0.0129910201929 
0.00089609328728 1.46922083322e-18 -0.0105777068557 
-0.00313669305718 -3.4213306829e-19 -0.0108140117749 
-0.00477387695221 -1.38552132217e-18 -0.00937099041331 
-0.00606644315648 -2.17587792181e-18 -0.0087634732218 
-0.00685463207013 -1.61517219942e-18 -0.0084386900786 
-0.00722390939959 -1.41569025347e-18 -0.00797379240268 
-0.0072297762297 -1.06500917828e-18 -0.00744154411545 
-0.00694504958982 -1.85846462913e-18 -0.00679525668842 
-0.00636634954253 -1.40691219019e-18 -0.00605421436775 
-0.00550452143219 -1.02110992769e-18 -0.00525574903922 
-0.00432602391389 -7.5582692724e-19 -0.00433287025752 
-0.0031971762208 -8.97081717012e-19 -0.00355123898177 
-0.00226628646874 -7.30620950367e-19 -0.00281280487079 
-0.00150161588739 -4.90868922134e-19 -0.00209371934462 
0.00169215697614 2.3589421679e-19 -0.00230163307771 
0.00259049679173 -5.47053999393e-19 -0.00312934633203 
0.00364312817938 -2.10860332259e-19 -0.00395230736634 
0.0046887689678 1.04093442259e-19 -0.00468426971276 
0.00565803331841 8.83731849106e-19 -0.00537073470475 
0.0064714502046 9.76077982499e-19 -0.00604025054792 
0.00705873558772 1.61371492851e-18 -0.00671301482371 
0.00736313886125 7.53698184396e-19 -0.00738211393009 
0.00732524862492 1.0876200957e-18 -0.0080213918321 
0.00687596122136 1.03137676421e-18 -0.00862071655413 
0.00592708103997 -3.91570241382e-20 -0.00916800329015 
0.00453334307107 -4.10026812198e-19 -0.00978297656485 
0.00283580773012 -5.89976232146e-21 -0.010252963976 
-0.00171735696788 -6.00935044018e-19 -0.00217753385992 
-0.0024402408596 -1.82192816487e-18 -0.0138519610545 
0.00257018531066 -9.17752365984e-19 -0.0124562179949 
-0.00107428925686 -4.6271354292e-19 -0.00156032341748 
0.00133599977907 1.27946901282e-19 -0.00182987393735 
-0.00345633589777 1.24478439916e-18 -0.00850290920511 
-0.00517826689224 -1.66820280019e-18 -0.0102393002376 
-0.000702446854977 -4.4743849009e-19 -0.00104504300717 
-0.000453651735286 -2.93851859909e-19 -0.000606674867166 
-0.000314552161822 -3.14408014644e-19 -0.000287091178329 
0.000755487891746 -7.39147915862e-20 -0.00108468374627 
0.00238067855452 -5.56364885328e-19 -0.00280141814613 
0.00341225307449 -4.85658417145e-20 -0.00360559230477 
0.00446062845277 6.00737903614e-19 -0.00437040759315 
0.0020827211868 -2.64213178038e-19 -0.015235042492 
0.00154480715566 -3.22337085268e-19 -0.00191416816492 
-0.00374052819618 -7.78766480933e-19 -0.00362822694117 
0.00443842724255 -4.12627468044e-19 -0.0117132882903 
0.00593164398829 3.67015695092e-19 -0.00581225567089 
0.00650890427407 1.24006181259e-18 -0.00692784586399 
0.00682799004912 8.83914449226e-19 -0.00818176542418 
-0.000390191322271 -1.61632210487e-19 -0.000112585842286 
0.000224318698786 -1.0423592412e-19 1.72121090474e-06 
0.00514136542261 6.8055550775e-19 -0.00483745054002 
-0.000309620245948 -3.89242406505e-20 -5.25519524653e-05 
0.00380516231532 0.000285191076585 -0.00337214658767 
0.0048077228474 0.00038291093667 -0.00435153909631 
0.00557619648149 0.000466948559118 -0.00549525315613 
0.00613481450587 0.000539988510691 -0.00682232945611 
0.00643666433794 0.000597351065448 -0.00832838436472 
0.00646197654934 0.000622528861881 -0.0100156275749 
0.00636439684539 0.000561690183445 -0.0118925040731 
-0.00661314734233 0.000538034086162 -0.0109004784608 
-0.00657874614509 0.000573780488494 -0.0092934251097 
-0.00639613754616 0.000551340227207 -0.00778964285633 
-0.00598261668558 0.000498378411827 -0.00642179680915 
-0.00535648412622 0.000432289978491 -0.0052221361547 
-0.00455369438265 0.000360140193267 -0.00416620947333 
-0.00359243846301 0.000268724195767 -0.0032613732452 
-0.00245978106833 6.54125898473e-05 -0.0216188507274 
-0.00195275095496 -0.000133126593001 -0.0250672852705 
-0.000918275433898 -0.000262049930586 -0.0270028582275 
0.00030548844446 -0.000292525311084 -0.0273856784964 
0.00149738949365 -0.000227070899426 -0.0263202499851 
0.00245344435095 -0.000107763986605 -0.0241078856756 
0.00328965220891 4.31490170136e-05 -0.0210023458412 
0.00404111551632 0.000246626456853 -0.0166506452932 
-0.00125754937084 7.14599537428e-05 -0.00115455986231 
-0.000910335583718 -4.8615520881e-06 -0.000474713057908 
-0.000616990975531 -5.78129074715e-05 -0.000174329513306 
1.3507479702e-05 -7.06905448553e-05 4.61327206496e-05 
1.14165976516e-05 -9.49422065287e-05 -9.94865490567e-06 
0.000326340423308 -8.57185669764e-05 -5.2031365327e-05 
0.000652909897484 -5.69897546597e-05 -0.000188759031634 
0.000973699764669 -2.22135786226e-06 -0.000506937618658 
-0.000249730485962 9.37011769377e-05 -0.000459427306432 
-0.000120095271358 6.91912737567e-05 -0.000336945637227 
-4.93489386628e-05 5.00539201785e-05 -0.000252303128517 
-7.45360828817e-06 3.44893785425e-05 -0.00018413411216 
1.80332736925e-05 2.03907022191e-05 -0.000121694271282 
2.96928271289e-05 8.61707837246e-06 -6.2717358303e-05 
2.72961767232e-05 5.25351722576e-07 -1.89464854377e-05 
1.59763428083e-05 -4.29395110707e-06 7.8185789745e-06 
5.75397983857e-07 -5.95787918627e-06 1.68811656766e-05 
-1.48128187155e-05 -4.26434304807e-06 7.2671828818e-06 
-2.61101331855e-05 5.99476058814e-07 -2.07110503272e-05 
-2.8389470836e-05 8.98838399176e-06 -6.62875010584e-05 
-1.64891758725e-05 2.09457402884e-05 -0.000126157161562 
1.00308620041e-05 3.58379314475e-05 -0.000193306710669 
5.28927085723e-05 5.17766556612e-05 -0.000262446546712 
0.000126152563677 7.15290770663e-05 -0.000350528726899 
0.000253182141938 9.46502186731e-05 -0.000465121368022 
0.000481943944472 0.000119345067885 -0.000608224969694 
0.00351436048227 -5.37662528827e-05 -0.0063391232096 
0.00354168646163 -1.17232268549e-05 -0.00853242380332 
0.00362091298583 3.42530422147e-05 -0.0107821962014 
0.00372665701872 9.9842471771e-05 -0.0132509022565 
0.00379090997512 0.000205453027517 -0.0160295310541 
0.00355436853392 0.000384586513731 -0.0192468479698 
0.00279303756252 0.000638081228531 -0.0229830602472 
0.00190242638421 0.000894383819641 -0.027001294217 
0.00111229619037 0.00108259169269 -0.0294854680283 
0.000115905341605 0.00115816237942 -0.0303527495981 
-0.000879083052499 0.0010920783386 -0.029669196678 
-0.00164213083857 0.000902171578592 -0.0272973469122 
-0.00241126837469 0.00064100368419 -0.0232967414032 
-0.00317711049944 0.00039042545286 -0.0194741322971 
-0.00352649687839 0.000209469086131 -0.0161552784929 
-0.00357415551121 9.99779120765e-05 -0.0132631309303 
-0.00349785169406 3.33289988598e-05 -0.0107451301939 
-0.00338642993423 -5.43230853903e-05 -0.0063361840644 
0.00120366116027 -3.71917761148e-05 -0.00648152082241 
-0.000920161982847 -2.4091888605e-05 -0.00655222699614 
-0.00284289915834 -1.22680537151e-05 -0.00659783458453 
-0.00451019522809 -4.12587520439e-06 -0.00657696162377 
-0.00586821819666 6.14938211582e-06 -0.00660276376612 
-0.00682072082412 2.1042158608e-05 -0.00666586110721 
-0.00734246925243 4.00045493831e-05 -0.00670293631492 
-0.00745312838998 6.19908276882e-05 -0.00665956346443 
-0.00719851958287 8.82359946606e-05 -0.00651054381969 
-0.00664896805638 0.000117703919927 -0.00625809571821 
-0.005864827068 0.000153330235421 -0.00588398772524 
-0.00494961249529 0.000192331766386 -0.00539816878926 
-0.00401200999267 0.0002311088472 -0.00480767351077 
-0.00311055415518 0.000264141464846 -0.00409124978236 
-0.00230229044242 0.000281429584149 -0.00326656534842 
-0.00161751151214 0.000269429344636 -0.00237766687811 
-0.0010418633874 0.00021632986934 -0.00147440270214 
-0.000477596307268 0.0001183762452 -0.000601778731663 
0.00104800471015 0.000217440527743 -0.00148762182153 
0.00163465014642 0.000271382018339 -0.00240848622948 
0.00233565047308 0.00028391287773 -0.00332246125229 
0.00316710320598 0.000265958586153 -0.0041807550355 
0.00409958534473 0.000230365696048 -0.00492974825414 
0.00505900200848 0.000188000669498 -0.00553540251063 
0.00597894291416 0.000146820756739 -0.00599865849269 
0.00675914627093 0.000109995070218 -0.00634242452488 
0.0073071431494 8.12789958446e-05 -0.00656219123065 
0.00755786277191 5.88407590127e-05 -0.00669203909663 
0.00744473116806 4.13032432994e-05 -0.00674542648349 
0.00691939956668 2.51209918881e-05 -0.00673402537316 
0.00596849685836 8.74701645972e-06 -0.00666714627922 
0.00461395245187 -5.78829163905e-06 -0.00658463822222 
0.00292828501793 -1.77624527678e-05 -0.00651586201585 
0.000980036126066 -2.93402235589e-05 -0.00644299205607 
-0.0011461099094 -4.09836571067e-05 -0.00638353949058 
0.00131005322726 7.40249117695e-05 -0.00118651671129 
0.00600313086136 0.000433051313041 -0.0131975676526 
-0.00574155391565 0.000422170334315 -0.0127951678154 
-0.00258346489827 0.000194960199536 -0.00256183131387 
0.00260326113129 0.000192662584374 -0.00255062871744 
0.00545402050108 0.000294357167986 -0.00515315510853 
0.00687618583058 0.000360085220763 -0.00686559147323 
0.00695391448255 0.000510201354985 -0.00944717667406 
0.00677304796148 0.000481013029958 -0.0105969151089 
0.0062009474992 0.00042101963876 -0.0115673828829 
-0.00592672608458 0.000386515932809 -0.0112567983679 
-0.00654121684208 0.000434206952809 -0.0105138827904 
-0.00308667818984 0.000237099756031 -0.0172071787055 
0.00246143486598 0.000119813616092 -0.0206752112322 
0.00272539692257 0.000223476076559 -0.0177677179176 
0.0047257210223 0.000341606549855 -0.014094827744 
-0.00174116674989 0.000141079088477 -0.0019576428746 
-0.000202709329142 -2.49759270258e-05 -7.25660900561e-05 
-0.00019301490837 -6.38276404537e-05 1.37117589981e-05 
0.000424925611092 -3.93321608279e-05 -0.000133275024781 
0.000602095172785 7.81409862418e-07 -0.00040766476103 
0.000801626536017 5.15539226261e-05 -0.000845664771839 
-0.000684719558451 0.000178087857513 -0.00110236276453 
-0.000424640207581 0.000138255632243 -0.000822675640147 
-0.000238785250009 9.8311307319e-05 -0.000592264585938 
-0.000123860830406 6.4035021071e-05 -0.000411751948518 
-5.63524230931e-05 3.62702779631e-05 -0.000261204713347 
-1.7962704462e-05 1.33892222015e-05 -0.00013045007235 
-2.2167424152e-06 -2.69865414008e-06 -3.42776710261e-05 
1.95890579761e-06 -1.2128762351e-05 2.32779419188e-05 
1.55402646689e-06 -1.54335551195e-05 4.17455799823e-05 
2.48226964853e-06 -1.22282114663e-05 2.13046685905e-05 
8.90427299889e-06 -2.31835492483e-06 -4.04235027993e-05 
2.91487319288e-05 1.46434643131e-05 -0.000144427470881 
7.10348851645e-05 3.85865529487e-05 -0.000283424406753 
0.000144043625848 6.75889686048e-05 -0.000442106399891 
0.000273254269355 0.000104355125259 -0.000643834534288 
0.000462681201064 0.000144265324737 -0.000877517123024 
0.000709191749498 0.000181749939884 -0.00113971371196 
0.00118675870717 1.59857099959e-05 -0.00863563954456 
0.00118892339153 7.02311880627e-05 -0.0109268354246 
0.00128175507453 0.000129129317122 -0.0134194015314 
0.00150861714073 0.000201010992342 -0.0160655781162 
0.00147196844419 0.000311479262629 -0.0192070525471 
0.00103632139261 0.000433602219144 -0.0226518221168 
0.000586819596796 0.000537057632868 -0.0259410202448 
0.00032243148828 0.000622711121478 -0.0284099127241 
0.000101432758086 0.00066035733263 -0.0294021095621 
-0.000124467145883 0.000637452296438 -0.0288626008108 
-0.000338386838794 0.000554191698142 -0.0267684460085 
-0.000618950327854 0.000438652366263 -0.0234345284577 
-0.000966230183877 0.000314054153743 -0.0196990066975 
-0.00120591213627 0.000203505187233 -0.0162160157029 
-0.0012467498241 0.000123745430918 -0.0132542457322 
-0.00119301061633 6.37464134822e-05 -0.0107397162061 
-0.00114304846345 1.09086199394e-05 -0.00849197876688 
-0.00104113658724 4.95620071838e-05 -0.00870965095415 
-0.0029379408624 7.80312182538e-05 -0.00853212892479 
-0.00460223247911 9.33178872318e-05 -0.00807960242144 
-0.00596784809343 0.000107339751079 -0.007696903219 
-0.00687828771567 0.000131136983721 -0.00749150720903 
-0.00734715676884 0.000151776911615 -0.00725157751772 
-0.00740818309513 0.000169894082531 -0.0069382407477 
-0.00712244937595 0.000184323601511 -0.00654072404433 
-0.00653512646741 0.000196758302761 -0.00605035807364 
-0.00568241737884 0.000210296879608 -0.00546139240946 
-0.0046813493155 0.000222764767448 -0.00481176829343 
-0.00366684268462 0.000234592486917 -0.00415137798845 
-0.0027295329119 0.000245900362766 -0.00343222272946 
-0.00191434029316 0.000248494992655 -0.00266133318417 
-0.00123817455473 0.000229706076744 -0.00186775574994 
0.00129184970589 0.0002340224582 -0.00194270166571 
0.00201676757362 0.000252700614325 -0.00278723449151 
0.00288207729349 0.000248996556177 -0.00361012528709 
0.00387675474996 0.000233010989159 -0.00437509174261 
0.00489411990588 0.000213802315345 -0.0050353609837 
0.00585730304315 0.000195463129522 -0.00561825767225 
0.0066671585981 0.000180896311139 -0.00612406755994 
0.00724579359283 0.000169255334967 -0.00656725897108 
0.00752307623445 0.000162375721551 -0.00696332016558 
0.00743910297844 0.000152163023669 -0.00731189091921 
0.00692986256676 0.000135549074424 -0.0075993124935 
0.00598032162363 0.00011564955086 -0.00787194919966 
0.00461173354025 9.06318187124e-05 -0.00811012623558 
0.00292473153914 6.38821749285e-05 -0.00831458604229 
0.000983194898999 3.64982544909e-05 -0.00843584529205 
0.00173900044482 0.000136144159127 -0.00192417069163 
0.00527199749582 0.000364965810409 -0.0125488661751 
-0.00397116376857 0.000316159762428 -0.0138015346216 
-0.00251651490447 0.000202005566807 -0.00284705171999 
0.00219150584002 0.000181079931857 -0.00251395396858 
0.00312934743159 0.000223109801279 -0.0032205342636 
0.00417698091578 0.000279386527099 -0.00397941930683 
0.00627414072183 0.000327843601695 -0.00597226661677 
0.00720228467474 0.000383238548117 -0.00778224031976 
0.00723339110577 0.000390699387102 -0.00870183880524 
0.00690246253104 0.000373717336512 -0.00956165101584 
0.00604800144498 0.000331724555565 -0.0103859479638 
-0.004609133533 0.000294927257087 -0.0116043607047 
-0.00611943003528 0.000311823612357 -0.00985754776258 
-0.00685327626341 0.000375024110371 -0.00940310734228 
-0.00706623955194 0.000414702451752 -0.00892801211234 
-0.00703729054086 0.000430422570115 -0.00822322624256 
-0.00675965948264 0.000414627660697 -0.0072145053231 
-0.00624520933527 0.000381880677714 -0.00620921293483 
-0.00547651376956 0.00033969727072 -0.00523373044851 
-0.00453723119156 0.000293921775504 -0.00433660721794 
-0.00328392821597 0.000234083217589 -0.00339066044262 
-0.00125572080958 0.000146443817588 -0.0227825695966 
-0.00157683383672 0.0002334945407 -0.0181991765785 
-0.000811036383597 5.20117453999e-05 -0.0260887293643 
-0.000277578805297 -2.14135150628e-06 -0.0277678654904 
0.000320581806904 -8.49132964162e-06 -0.0278423867547 
0.000911416687306 3.08114130927e-05 -0.0263268399343 
0.00148810463927 0.000120438400394 -0.0230539890924 
0.0016082229574 0.000228537000148 -0.0189363979928 
0.00343302495255 0.000287523040703 -0.0145816523562 
-0.00116639117356 0.00011744776514 -0.00148998914921 
-0.000769380789741 5.20328734844e-05 -0.000830473009936 
-0.000554056688425 -1.19503949743e-06 -0.000375268104245 
-0.000100759233305 -4.25827456187e-05 3.68201511314e-05 
8.92549901588e-06 -4.81345061971e-05 6.75027373472e-05 
0.000121212849223 -4.19978203831e-05 2.87651572847e-05 
0.000228991947109 -2.35173628488e-05 -9.21895060157e-05 
0.000340996580407 7.8773783803e-06 -0.000316924436618 
0.000485966742616 4.99412172949e-05 -0.000643158611016 
0.00112969876235 0.000107952098577 -0.00141025929709 
-0.000883027357906 0.000184846512773 -0.00142433180315 
-0.000579168060143 0.000135526049565 -0.00103575769065 
-0.000349172542892 8.62631560531e-05 -0.000694726811068 
-0.000211177256063 4.49172169807e-05 -0.000421372163851 
-0.00012994508253 1.23745261203e-05 -0.000206358993475 
-7.97508989076e-05 -1.15011039087e-05 -5.03767374057e-05 
-3.71857344643e-05 -2.50124567157e-05 3.619243451e-05 
4.49011189007e-06 -2.95821220918e-05 6.22487482471e-05 
4.8069502407e-05 -2.48151497643e-05 3.08386648211e-05 
9.58816614575e-05 -1.05421598528e-05 -6.43853093859e-05 
0.000158176588723 1.39813543065e-05 -0.000232529789097 
0.00025096739057 4.82080570932e-05 -0.000463831848866 
0.000410889116879 9.2442707526e-05 -0.000770693141679 
0.000689879686508 0.000144578159588 -0.00116926836365 
0.000998632300685 0.000193771166329 -0.00156767089575 
-0.0010798258363 0.000118618800674 -0.0110060312915 
-0.000831525168554 0.000178028241829 -0.0136281298814 
-0.000433316189947 0.000227706050288 -0.016655271752 
0.000203951185228 0.000271447886637 -0.0189861906341 
-0.000265425092343 0.000268978744573 -0.0213503923164 
-0.000309071647361 0.000278165932424 -0.0245218091891 
-0.000185041794861 0.00028279654025 -0.0272481670978 
1.11861159577e-05 0.000285518571886 -0.0285311976989 
0.000199376765086 0.000284661011171 -0.0282669783632 
0.000392570682062 0.000275357334531 -0.0264424644169 
0.000523617337969 0.000269870695038 -0.023373295865 
0.000535655620298 0.000258014981399 -0.0197017987244 
0.000574374549828 0.000215084033532 -0.0159663847106 
0.000775320841216 0.000159513236126 -0.0129990739865 
0.00093223722087 9.9547614226e-05 -0.0105747147594 
-0.00317066916923 0.000183988435073 -0.0108103071996 
-0.00481058651063 0.000184504633306 -0.00936193438477 
-0.00610615524996 0.000212085229386 -0.00875184922687 
-0.00689790584405 0.000254670727816 -0.00842679669544 
-0.00726944619674 0.000276875091776 -0.00796398543165 
-0.0072755538052 0.000291820997994 -0.00743539870633 
-0.00698750542225 0.0002920896585 -0.00679359891634 
-0.00640160494726 0.000282591096482 -0.00605664092389 
-0.00552961844978 0.000267929535746 -0.00526102904469 
-0.00433895998859 0.000249250902305 -0.00433996872415 
-0.00319991048716 0.00022773832528 -0.00355878310736 
-0.00226209863698 0.000218968881101 -0.0028219331187 
-0.00149357173469 0.000208260399434 -0.00210473640156 
0.00168436485939 0.000216252485997 -0.00231232009611 
0.00258727038224 0.000228146445978 -0.00313747412566 
0.00364795372622 0.000233298454929 -0.0039581685431 
0.00470342710607 0.000237535644626 -0.00468881380541 
0.00568292157357 0.000244175577896 -0.00537401759933 
0.00650569088922 0.000254094377261 -0.00604144172458 
0.00710032197149 0.000265516739098 -0.00671089418969 
0.00740872061214 0.000273424297031 -0.00737578252119 
0.00737064468104 0.000272979352462 -0.00801124819706 
0.00691808078059 0.000259113841681 -0.00860884814582 
0.00596546034604 0.000226285646155 -0.00915744592789 
0.00456887837671 0.000190254355425 -0.0097754289259 
0.00287079360487 0.000143590956276 -0.0102480810077 
-0.00171245545968 0.000176598298653 -0.00218732939977 
-0.00247225249335 0.000244066398416 -0.0138675274039 
0.00260281283443 0.000209408003371 -0.0124618818568 
-0.00106679545709 0.000158282105312 -0.00157081574312 
0.0013290560838 0.000169041635156 -0.00184033802259 
-0.00341871750416 -1.27755447687e-05 -0.00849482993524 
-0.00521371056607 0.000266037266879 -0.010231056015 
-0.000694392955718 0.000102014774037 -0.0010532695553 
-0.000444618833829 4.86743802592e-05 -0.000611236926402 
-0.000305684345778 6.38325419923e-06 -0.000288530191848 
0.000747423030811 0.000103361180963 -0.00109300242738 
0.00237828901958 0.000205593317577 -0.00281034563976 
0.00341738354488 0.000230780720584 -0.00361368597354 
0.00447511224194 0.000260874548673 -0.00437813809661 
0.00211389603001 0.000242207935566 -0.015263145143 
0.00153985006972 0.000151793435718 -0.0019229189016 
-0.00375185900068 0.00026124719247 -0.00363620591209 
0.0044708825358 0.000284552921917 -0.0117134113516 
0.00596743684369 0.00039952264922 -0.00581681960541 
0.00655369022626 0.00045243639897 -0.00692638974176 
0.00687771549104 0.000495608669677 -0.00817324374692 
-0.000382294441276 -4.08392720162e-05 -0.000110387419887 
0.000219251642423 -6.28900051023e-05 6.03028172979e-06 
0.00516642578072 0.000342147923091 -0.00484519980049 
-0.000304233421114 -8.62497041695e-05 -4.61702077241e-05 
0.00384347297776 0.000573732345845 -0.00339803427853 
0.00488452998496 0.000770024550977 -0.00437837568838 
0.00569169863748 0.000934105266261 -0.00551390996763 
0.0062828491826 0.00107843505203 -0.00682129828728 
0.00660707518305 0.00120084839688 -0.00830192552694 
0.00663447763444 0.00127319400653 -0.0099744571761 
0.00651731012894 0.0011814523923 -0.0118660130766 
-0.00675793139235 0.00110861771786 -0.0108581985239 
-0.00674300138548 0.00116019961177 -0.00925787674187 
-0.0065564491352 0.00110294251206 -0.00777570265534 
-0.00611893794935 0.000994542141745 -0.00643105366154 
-0.00546063029031 0.000865704390114 -0.00524651298401 
-0.00462251799371 0.000724802688063 -0.00419362882393 
-0.00362508029137 0.00053945749991 -0.00328673825666 
-0.00252649332361 0.00013297542104 -0.0218657385091 
-0.00199356760785 -0.000289036364923 -0.0254249608195 
-0.000931758038545 -0.000549626047879 -0.0274382942035 
0.000308685297169 -0.000610353977238 -0.0278404341075 
0.00152058534743 -0.000482343636422 -0.0267350424127 
0.00250916780945 -0.000239040760796 -0.0244410990515 
0.00338254658753 9.42494148241e-05 -0.0212350053601 
0.00414216865313 0.000541720345235 -0.0167593904411 
-0.00123676091197 0.000132066522828 -0.00116426599013 
-0.000882514505641 -2.38217956615e-05 -0.000470962288232 
-0.000587819911203 -0.000126151412757 -0.000159365523486 
1.26447358508e-05 -0.000139251192691 6.61252799261e-05 
1.09230474258e-05 -0.00018926364436 1.67852905881e-05 
0.000307023434108 -0.000174709459125 -2.81508755497e-05 
0.000623772203108 -0.000125253961934 -0.000173767695391 
0.000947107279597 -1.89882801623e-05 -0.000503167182883 
-0.000236503967249 0.000204800654779 -0.000471237193852 
-0.000108462974765 0.000151277468582 -0.000347985366129 
-3.66194496382e-05 0.000107556071848 -0.000258256575053 
5.77486993289e-06 7.31121484666e-05 -0.000188247683048 
3.08493334619e-05 4.3697465107e-05 -0.000125092274062 
4.07702966303e-05 1.94196077385e-05 -6.41285529834e-05 
3.54307849677e-05 2.79812444285e-06 -1.86072523665e-05 
2.03143190694e-05 -7.20450412349e-06 9.40725781079e-06 
5.0813787581e-07 -1.06641586695e-05 1.89477296463e-05 
-1.92675734609e-05 -7.11701219626e-06 8.82834453769e-06 
-3.46085919706e-05 3.03896266297e-06 -2.04299244886e-05 
-3.98148919696e-05 2.02839781389e-05 -6.78354208437e-05 
-2.95598821959e-05 4.49609407668e-05 -0.000129708870398 
-3.62761425103e-06 7.62788602811e-05 -0.000197862984107 
3.97670686751e-05 0.000111622343384 -0.000268971199578 
0.000113939033964 0.000156530025168 -0.000362149988488 
0.000239562082923 0.000206955321815 -0.000477133100492 
0.000462790422169 0.000258707105176 -0.000618642678625 
0.0034145985036 -9.99817470805e-05 -0.00630995813293 
0.0034347299544 -2.31711686403e-05 -0.00850612928665 
0.00350532667756 6.12993014962e-05 -0.0107640436015 
0.00360156227854 0.000182529537985 -0.0132553108209 
0.00366314734132 0.000377490224211 -0.0160934014763 
0.00345237041984 0.000725642490949 -0.0194257248095 
0.00271994530391 0.00124638049112 -0.0233220666222 
0.00185373927841 0.00178732429187 -0.0274851762089 
0.00108805209486 0.00217951536586 -0.0300988819504 
0.000113204287952 0.00233787266617 -0.0310236641228 
-0.000857995670405 0.00219768255013 -0.0302903093903 
-0.00159117372614 0.00180109695168 -0.0277941647996 
-0.00233064368734 0.00125380894166 -0.023647229911 
-0.00306809000483 0.000741201809244 -0.0196631020808 
-0.00339650319285 0.000387777324595 -0.0162254064916 
-0.00344912095243 0.00018326507602 -0.013268598492 
-0.00338259521737 5.93373869129e-05 -0.0107271117755 
-0.0032864461849 -0.000101101310846 -0.00630732814742 
0.00110200532272 -6.94339376272e-05 -0.0064500294826 
-0.00102799313294 -4.65523144595e-05 -0.00651829909235 
-0.00295981648094 -2.65311340737e-05 -0.00656202234775 
-0.00463777159083 -1.35185710917e-05 -0.00654038999026 
-0.0060063768084 4.35763308603e-06 -0.00656811496613 
-0.00696749084446 3.30698025334e-05 -0.00663613691392 
-0.00749253537841 7.169360648e-05 -0.00667931398041 
-0.00759801793524 0.000117166711638 -0.00664124899082 
-0.00732829854699 0.000170598309271 -0.00649609567956 
-0.0067545780351 0.000230637009979 -0.00624730727086 
-0.00594025297786 0.000303142178607 -0.0058779431495 
-0.0049912257648 0.000382681199266 -0.0053980526067 
-0.00402051730435 0.000461613474976 -0.00481559444507 
-0.00309005729049 0.000529468532685 -0.00410979473891 
-0.00226114206252 0.000568534234767 -0.00329711837881 
-0.00156845647216 0.000555831440074 -0.00241497895332 
-0.00100115947523 0.000459106653818 -0.00150057576772 
-0.00045882406359 0.000256649509322 -0.000612123013896 
0.00100697792021 0.000461333292695 -0.00151385576089 
0.00158511410324 0.000559825543791 -0.00244593376289 
0.00229373361061 0.000573643370987 -0.0033533158925 
0.00314592522569 0.000533378736613 -0.00419998381217 
0.00410808262233 0.00046044208599 -0.00493876083354 
0.00510138284704 0.000374127794474 -0.0055366654627 
0.00605562741408 0.000289922142683 -0.00599355251951 
0.00686581910389 0.000214782444228 -0.00633199136747 
0.007437576302 0.000156347719343 -0.00654760148543 
0.00770294188432 0.000110549760955 -0.00667315610468 
0.00759471681027 7.41831328488e-05 -0.00672117115653 
0.00706579689256 4.13057911987e-05 -0.00670396221876 
0.0061066707368 9.54330475527e-06 -0.00663255745394 
0.00474178701237 -1.68887026291e-05 -0.00654795627192 
0.00304533740968 -3.71450147349e-05 -0.00647969969292 
0.00108786098218 -5.64679623173e-05 -0.00640887947011 
-0.0010444414887 -7.66267997403e-05 -0.00635212900659 
0.00129005642917 0.000137515691395 -0.00119608630992 
0.00613038582351 0.000932438062543 -0.0132047910181 
-0.00585292313471 0.000902193432635 -0.0127905715548 
-0.00258878162189 0.000385962236654 -0.00258478481454 
0.00260851373471 0.000381756650653 -0.00257324698296 
0.0055299261402 0.000586621238441 -0.00517876029773 
0.0070089941664 0.0007157328075 -0.0068687683579 
0.00711056913746 0.00103216318965 -0.00940856839028 
0.00690846937787 0.000990018884495 -0.0105530845199 
0.00631284830811 0.000884603849627 -0.0115378210926 
-0.00603085768115 0.000801905274311 -0.0112253983938 
-0.00667043901429 0.000888561328091 -0.0104741390455 
-0.00316471152318 0.000506500893728 -0.0173325412287 
0.00252746449446 0.000246226212657 -0.0208982106516 
0.0027957735436 0.000468873647985 -0.0179115378513 
0.00482484563475 0.000733396248018 -0.0141353244836 
-0.00172718023688 0.00027665839476 -0.00198113190036 
-0.00017836167157 -4.97386628078e-05 -6.58795180279e-05 
-0.000177485666221 -0.000127068788887 3.13287006179e-05 
0.000396572152043 -8.27781483203e-05 -0.000123585417317 
0.000569769464763 -5.65454377855e-06 -0.000408372666044 
0.000770774573551 9.62692877496e-05 -0.000858208779266 
-0.000654577943082 0.000378589210702 -0.00113034403155 
-0.000401327606764 0.000294956798303 -0.000848509953101 
-0.000217509332852 0.000210183372611 -0.000612061774881 
-0.000100993921393 0.000135882054748 -0.000423618461092 
-3.4001622075e-05 7.67067570748e-05 -0.000268309300279 
1.70089729043e-06 2.96594866129e-05 -0.000133151313975 
1.2470193753e-05 -3.05192221928e-06 -3.2763717221e-05 
9.64239034555e-06 -2.22696148965e-05 2.76867149758e-05 
1.3056567905e-06 -2.89904769999e-05 4.72426373812e-05 
-5.82188858716e-06 -2.24198480604e-05 2.56980501056e-05 
-6.52876604941e-06 -2.24348229686e-06 -3.91469388637e-05 
8.54858604374e-06 3.22016180527e-05 -0.000147673188894 
4.78932537804e-05 8.14275184285e-05 -0.000291153139765 
0.000120534081996 0.000143142374135 -0.000455315627988 
0.000250909349962 0.00022249105806 -0.000665500551435 
0.00043796587619 0.000306920368074 -0.000904786569338 
0.00067810060417 0.000385804729481 -0.00116842406196 
0.00108074112912 3.29863861816e-05 -0.00861110205957 
0.00107591160633 0.000139815900427 -0.0109147590127 
0.00115950710095 0.000255641473582 -0.0134365713062 
0.00137695778573 0.000393334004139 -0.0161445473304 
0.00133753189978 0.000609387939185 -0.0193922883797 
0.000912334357032 0.000855060694597 -0.0229711150522 
0.0004838413705 0.00105632333687 -0.0264060606592 
0.000258614021524 0.00122780661279 -0.0289932703083 
9.25376730777e-05 0.00130382170667 -0.0300405645796 
-7.58900897943e-05 0.00125518757756 -0.0294681491667 
-0.000244166396241 0.00109016695942 -0.027268579926 
-0.000495328955139 0.000867937455806 -0.023782087857 
-0.000831134702278 0.000620050379456 -0.0199015878174 
-0.00107620696348 0.000401352777331 -0.0163005697696 
-0.00112659481052 0.000244559071994 -0.0132681856903 
-0.00108079570278 0.000126136185365 -0.0107268723957 
-0.00103711211858 2.27775283776e-05 -0.00846734213725 
-0.00114831574205 9.90974394162e-05 -0.00868463672988 
-0.00304978825629 0.000154277758553 -0.00850398720002 
-0.00472370025233 0.000183561568532 -0.00804769784198 
-0.00610021641089 0.000210350272465 -0.00766393948813 
-0.00701987738064 0.000256938415851 -0.00746106652 
-0.00749366917317 0.000297871006886 -0.00722677658124 
-0.00755102340183 0.000334242349724 -0.00692085813394 
-0.00725089449898 0.00036377277144 -0.00653040352798 
-0.00664015716954 0.000389375171941 -0.00604598852756 
-0.00575689218699 0.000417327065026 -0.00546187683042 
-0.00472222934346 0.000443006331492 -0.00481611147904 
-0.00367600761813 0.000467304592479 -0.00416047322384 
-0.0027131314859 0.000491091113821 -0.00345001518367 
-0.00188117032518 0.000500331380255 -0.00269056740208 
-0.00119964577452 0.000473484120347 -0.00190486846418 
0.00125262798374 0.00048157006765 -0.00197996037853 
0.00198338446198 0.000508150301975 -0.00281560877921 
0.00286648590439 0.000497068345179 -0.00362622940915 
0.00388842970717 0.000464157191469 -0.00438145364036 
0.00493797549016 0.000425067906938 -0.00503587341963 
0.00593381741534 0.000387303028042 -0.00561473160674 
0.00677281495331 0.000357249949108 -0.00611654071023 
0.00737454518483 0.000333255605547 -0.00655467429318 
0.00766605741313 0.000319020769291 -0.00694445316651 
0.00758513303248 0.000298659794834 -0.00728597441945 
0.00707002316126 0.000266130428549 -0.00756832052895 
0.00611104486173 0.000227314122012 -0.00783931726245 
0.00473264258246 0.000178031867025 -0.00807897306679 
0.00303738697725 0.000125987515626 -0.00828627501964 
0.00109087909989 7.29532196694e-05 -0.00841038995587 
0.00172488254328 0.000266448757664 -0.00194607016057 
0.00537076486354 0.000771611823882 -0.0125491294552 
-0.00405835835125 0.000663118092788 -0.0138321671489 
-0.0025120076439 0.000403124834808 -0.00287780261231 
0.00218099501674 0.000360860102863 -0.00254304676546 
0.00314063374314 0.000446942197771 -0.00325237300138 
0.00421762818082 0.000560599725574 -0.00401403158281 
0.00638136705726 0.00065196051251 -0.00598988595974 
0.00734949839266 0.000763443413809 -0.00776693155944 
0.00737975578659 0.000782961697504 -0.00866796471908 
0.00703283678459 0.000756453621589 -0.0095183287841 
0.00615787093419 0.000679819604578 -0.0103497125758 
-0.00470603157841 0.000607597314697 -0.0115888055533 
-0.00623488775835 0.000632444544106 -0.00981760627539 
-0.00698908692913 0.000756959058736 -0.00936044980054 
-0.00721079406929 0.000830780893451 -0.00889086631819 
-0.00718929306293 0.000857718943976 -0.00820200241792 
-0.00690232408125 0.000824440784331 -0.00721438826332 
-0.00636449071035 0.000759673171769 -0.00622774442074 
-0.00556378312603 0.000677978792351 -0.00526430896912 
-0.00459063439681 0.000588436803176 -0.00437098377565 
-0.00329937653474 0.00046833872803 -0.00342326891558 
-0.0013056802687 0.000298108859671 -0.0230740118375 
-0.00165142652012 0.000476654931081 -0.0183510785479 
-0.000837583823672 0.000111586696269 -0.0264943191098 
-0.000284950829479 3.55761164483e-06 -0.0282411895564 
0.000328982395531 -9.45969362326e-06 -0.0283193230583 
0.000936572326866 6.55634313174e-05 -0.0267451686498 
0.00153580712402 0.000245071771569 -0.0233540522577 
0.00168320786253 0.000466010312116 -0.019113496753 
0.0035138746524 0.000599390731022 -0.0146359164448 
-0.00114048544723 0.000231177598082 -0.00151534357096 
-0.000738270973746 9.76680316047e-05 -0.000843469896697 
-0.000521666574339 -8.99597995024e-06 -0.000375589218504 
-8.77478251448e-05 -8.32469679057e-05 4.96172645042e-05 
8.14378711679e-06 -9.37517160208e-05 8.23134718791e-05 
0.000106697530921 -8.22988841574e-05 4.11989463797e-05 
0.000203497751583 -4.71812690794e-05 -8.61770417999e-05 
0.000309186245447 1.38684968595e-05 -0.000320090576276 
0.0004530250698 9.83399305659e-05 -0.000656882519995 
0.00110310516902 0.000211269491757 -0.00143361729159 
-0.000852015685599 0.000381661188136 -0.00145972406901 
-0.000551412080935 0.000280423160928 -0.00106614447147 
-0.000320925747481 0.000178746337442 -0.000715806823149 
-0.000182026581658 9.26632733215e-05 -0.000432351550783 
-0.000103440802306 2.63990549837e-05 -0.000209956683304 
-5.96296199675e-05 -2.11889998542e-05 -4.67819389605e-05 
-2.66268852323e-05 -4.78391782338e-05 4.4504581506e-05 
3.91083841072e-06 -5.68538051637e-05 7.22111877036e-05 
3.63692168393e-05 -4.7477179301e-05 3.89535457974e-05 
7.46024825369e-05 -1.93642619124e-05 -6.13070135428e-05 
0.000130472063462 2.93701818599e-05 -0.000236784654936 
0.000220686771383 9.89340675603e-05 -0.000476135028195 
0.000381964177955 0.00019049434777 -0.000793489311624 
0.000660898004888 0.000296862293556 -0.00120120978582 
0.000966647603686 0.000397929415383 -0.00160368960808 
-0.00118526605095 0.000239166889772 -0.010993297755 
-0.000936497627862 0.000358481520867 -0.0136534732121 
-0.000542059411542 0.000457337504543 -0.0167596260107 
8.88569334953e-05 0.000544372060644 -0.0191658436996 
-0.000363153519742 0.000539781113666 -0.0216104611004 
-0.00038778084586 0.000565573111998 -0.0248984545257 
-0.000234853874884 0.000578375629289 -0.0277392148787 
-3.53004584449e-07 0.000583198840479 -0.0290813365592 
0.000226947255427 0.000580734234126 -0.0288040719744 
0.000453605643567 0.00056193778986 -0.02689661312 
0.000609015848943 0.000544177552543 -0.0237039608644 
0.000637442337094 0.000519410773023 -0.0199028841106 
0.000680681627873 0.000434084600085 -0.0160507245799 
0.000880464862535 0.000321701976861 -0.0130126158056 
0.0010385621584 0.000199692766036 -0.0105600563078 
-0.00327200420197 0.000371706053892 -0.0107909712488 
-0.00492349122595 0.000370654868496 -0.00933021795412 
-0.00623102395674 0.000424211034465 -0.00871477889415 
-0.00703470264421 0.000507684719467 -0.00839102453249 
-0.00741432204848 0.000549452147307 -0.00793668164245 
-0.00741966900442 0.000578363209237 -0.00742015053208 
-0.00711968201508 0.000579039534402 -0.00679205461011 
-0.00651041123603 0.000561068123096 -0.00606711313841 
-0.00560639912794 0.000533170668787 -0.00527972193008 
-0.00437666455504 0.000497260210624 -0.00436408923844 
-0.00320470242392 0.000454453100699 -0.00358116732603 
-0.00224520828262 0.000437497028357 -0.00284747035075 
-0.00146479336558 0.000419451177545 -0.00213639564189 
0.00165639156758 0.000434189106716 -0.0023424478994 
0.00257394068467 0.00045493255687 -0.00315906682302 
0.00366024088296 0.000464849294259 -0.00397378738553 
0.00474689302986 0.000473076302729 -0.00470183972259 
0.00575875108256 0.000485295279948 -0.00538435594998 
0.00661112716486 0.000503984874201 -0.00604653325398 
0.00722944374211 0.000526042907351 -0.0067069525595 
0.00755161864483 0.000541892625478 -0.0073594855164 
0.00751434662711 0.000542536785097 -0.00798228723255 
0.00705115044412 0.000518072193715 -0.00857208434983 
0.00608510000667 0.000454617403092 -0.00912175583139 
0.0046777592716 0.000382253856726 -0.00974726573377 
0.00297563628026 0.000288305890186 -0.0102279456234 
-0.00169192506949 0.000352356385248 -0.0022175370599 
-0.00256108310063 0.000498444227032 -0.0138996736972 
0.00269698013834 0.000424582791583 -0.0124673112973 
-0.0010388200744 0.000318750970235 -0.00160201846745 
0.00130257866702 0.00033834270499 -0.00187129973537 
-0.00331187245676 -2.5368571467e-05 -0.00846878916482 
-0.00532097451723 0.000540585698947 -0.0101985917939 
-0.000664278248681 0.000204530506265 -0.00107790973359 
-0.00041191415286 9.63388203198e-05 -0.000624558783596 
-0.000274544399071 1.13279987997e-05 -0.000291107662442 
0.000717268441276 0.000206681281293 -0.00111808266726 
0.00236610443696 0.000410265794301 -0.00283770002302 
0.0034294095764 0.000461243415218 -0.00364058740699 
0.00451777114446 0.000521051121461 -0.00440582261572 
0.00219923400049 0.000494030400843 -0.0153317386499 
0.00151853679064 0.000301155544787 -0.00195045893757 
-0.00378277528913 0.00052401989498 -0.00366852291886 
0.00456380841416 0.000584665738672 -0.0117013065297 
0.00607819774131 0.000796523275631 -0.00584083323465 
0.00669328174514 0.000901286113619 -0.00693166665083 
0.00703520192975 0.000991986007915 -0.00815417683747 
-0.000354739653894 -8.49254154946e-05 -0.000100252202752 
0.000202363327306 -0.000125613917869 2.32523483014e-05 
0.00524279976649 0.000684342637323 -0.00487862683497 
-0.000285550906147 -0.000175334914521 -2.21401536057e-05 
0.00389585296334 0.000876069081914 -0.00348994847637 
0.00501962522201 0.00116389020082 -0.00447540698228 
0.00589475461469 0.00139822898981 -0.005592570745 
0.00654524871596 0.00160879170888 -0.00686578544159 
0.0069178901092 0.0018025964145 -0.00829517523433 
0.00696990451898 0.00195554004251 -0.00990845480232 
0.00679113514395 0.00188854162086 -0.0117691814007 
-0.0070354717996 0.00170595761548 -0.0107569844902 
-0.00706303152522 0.00175110956582 -0.00921858750378 
-0.00684909579629 0.00164592363494 -0.00779316946592 
-0.0063609246032 0.00148238439074 -0.00649186711864 
-0.00564324196474 0.00129808120541 -0.0053344599157 
-0.0047423145005 0.00109815597813 -0.00429257062621 
-0.00366564589356 0.000822547949891 -0.00337602629963 
-0.0024876857545 0.000173689114873 -0.0222292037274 
-0.00192119196636 -0.000470699689078 -0.0260303679391 
-0.000888915839551 -0.000853863529177 -0.0281897369836 
0.000298733027836 -0.000942540201721 -0.0286266861474 
0.00146446467904 -0.000760398534076 -0.0274448963742 
0.00244587602492 -0.000410060246686 -0.0249954547265 
0.00339097355437 0.000123486909618 -0.0215703985034 
0.00421152749869 0.00091120740741 -0.0168969371966 
-0.00116809799139 0.000167636117101 -0.00118843033528 
-0.000805028605975 -6.93824520634e-05 -0.000457659288081 
-0.000524433621614 -0.000207256811414 -0.000115532336618 
1.11277894149e-05 -0.000202286585074 0.000113492705809 
1.01142205148e-05 -0.000277930815425 7.52702361182e-05 
0.000273271900429 -0.000262744121782 2.71906535831e-05 
0.00055928739562 -0.000208456113972 -0.000130136161689 
0.000870553355586 -6.48455997166e-05 -0.000490717316421 
-0.000204520827816 0.000365660606841 -0.000499043231422 
-7.96274308088e-05 0.000272449520661 -0.000374068654496 
-6.51259114902e-06 0.000190020886015 -0.00027774947194 
3.61860768407e-05 0.0001250475139 -0.000198838688599 
5.89114922153e-05 7.61081131326e-05 -0.000131764617608 
6.31926052976e-05 3.65457440761e-05 -6.57120872991e-05 
5.09899850171e-05 8.84318092274e-06 -1.64933196587e-05 
2.84004479397e-05 -8.13958216003e-06 1.40015525113e-05 
3.9552741205e-07 -1.40029150744e-05 2.44759017262e-05 
-2.75496875119e-05 -7.92915421412e-06 1.33813112707e-05 
-5.08551549756e-05 9.46925217918e-06 -1.83594872392e-05 
-6.29722861798e-05 3.82440305969e-05 -6.96573907048e-05 
-5.8271300219e-05 7.8448116868e-05 -0.000136650702716 
-3.50005475703e-05 0.000130837075148 -0.000209092147111 
8.71651411253e-06 0.000197643174027 -0.000289457122086 
8.36807209996e-05 0.000281663445287 -0.000389116318907 
0.000206714956077 0.000369475231726 -0.000505203957633 
0.000422757997014 0.000458285001545 -0.000643342209378 
0.00327590917518 -0.000132343783472 -0.0062673300821 
0.00328136530864 -3.1119008543e-05 -0.00845660891352 
0.00332923336734 8.14237411363e-05 -0.0107130905907 
0.00338842475078 0.000246531808504 -0.0132232197982 
0.00339882658289 0.000517727558533 -0.0161388900084 
0.00312248393836 0.00100615496196 -0.0196541677134 
0.0023951110664 0.00183025887369 -0.0239344333452 
0.00157184861019 0.0026173886742 -0.0285548044944 
0.000898579351955 0.00325435882532 -0.0315087596771 
0.000103752890382 0.00347597091403 -0.0325358649782 
-0.000686079877509 0.00328039977111 -0.0317208312041 
-0.00131044827449 0.00264278356053 -0.0288907382275 
-0.00199148282323 0.0018490569249 -0.0242805639822 
-0.00272762264178 0.0010401266387 -0.0199163497992 
-0.00312860182131 0.000539203856528 -0.0162822224853 
-0.00323590271749 0.000249099530595 -0.0132380834533 
-0.00320690569176 7.83715534902e-05 -0.0106765657049 
-0.00314750924162 -0.000133973371173 -0.00626530034915 
0.000950449937846 -9.25840441487e-05 -0.00640573465666 
-0.00120101094996 -6.57631719289e-05 -0.00647194787528 
-0.00315868801507 -4.36853675507e-05 -0.00651277475401 
-0.00486253418299 -3.06243465594e-05 -0.00648868368646 
-0.00625481773869 -9.43204698267e-06 -0.00651606891102 
-0.0072320769102 3.11315636512e-05 -0.00658753644146 
-0.00776086636161 9.09605420747e-05 -0.00663551340136 
-0.00785407241663 0.00016256939376 -0.00660049058616 
-0.00755513189491 0.000244600336432 -0.00645553654287 
-0.00693804008534 0.000336685546666 -0.00620650043254 
-0.00606970490636 0.000447538361575 -0.00583863355431 
-0.00506098433042 0.000569340519463 -0.00536447060296 
-0.00403138056474 0.000689240314808 -0.00479422875295 
-0.00304925521063 0.000792586233487 -0.00410902181476 
-0.00218241619055 0.000857398068721 -0.00332560591195 
-0.0014720574793 0.00085713099391 -0.00247740065046 
-0.000914430370381 0.00075560533934 -0.00157948117369 
-0.000419599618637 0.00045490173001 -0.000636572359028 
0.000919757159015 0.000758998049361 -0.00159303708213 
0.00148738322118 0.000863251345473 -0.00250854652643 
0.00221324082217 0.000865651022888 -0.00338206048344 
0.00310379676223 0.000799314772111 -0.00419979413749 
0.00411888475751 0.000688468824228 -0.00491825942388 
0.00517268042466 0.000556893630166 -0.00550411008081 
0.00618770028401 0.000426881720097 -0.00595459448528 
0.00705193451389 0.000311535417968 -0.00629068864273 
0.00766603978951 0.000222377719526 -0.00650568707314 
0.00796034827249 0.000151866453025 -0.00663110074562 
0.00786379599925 9.43565110213e-05 -0.00667615221032 
0.00733050294729 4.37905310375e-05 -0.00665480232345 
0.00635560489661 -1.6134273632e-06 -0.00658060828754 
0.00496688438318 -3.54224362598e-05 -0.00649624690546 
0.00324320412047 -5.8219808944e-05 -0.0064304959337 
0.00125986778131 -7.92990665779e-05 -0.00636277607764 
-0.000893558769128 -0.00010252913977 -0.00630832200862 
0.00122395443356 0.000175782099348 -0.00122119672651 
0.00628818309337 0.00157941234032 -0.0131430753969 
-0.00599143139526 0.00149037733776 -0.012712324719 
-0.00257596750767 0.000580562852364 -0.00265699189797 
0.00259565244211 0.000575196839185 -0.00264424079528 
0.00566178164252 0.000875656655476 -0.00523677486881 
0.00724675645482 0.00106284682462 -0.00689273659955 
0.00740778435664 0.00156131032394 -0.00935324324998 
0.00716744321165 0.00152660373498 -0.0104512468423 
0.00649213001496 0.00140323014869 -0.0114352379673 
-0.00620702569076 0.00124218378038 -0.0111244481721 
-0.00691608366728 0.00135867310588 -0.0103730878081 
-0.00319587425299 0.000810246407881 -0.0174857560268 
0.00252123853892 0.000382205028694 -0.0212205889094 
0.00282165008974 0.000735531482007 -0.0180873486794 
0.00492008876756 0.00120850817442 -0.014125366427 
-0.00167319074117 0.000406841761425 -0.00204047853826 
-0.000130550905773 -7.26296323496e-05 -4.35666915225e-05 
-0.000149275266741 -0.000186633736535 7.53346108961e-05 
0.000337268198815 -0.000129641366068 -9.28067950477e-05 
0.000492408092573 -2.12068371092e-05 -0.000400957451895 
0.000689995517824 0.000130519457458 -0.000879097724195 
-0.000587264907241 0.000626468992661 -0.00120844515216 
-0.000344339691405 0.000490171590016 -0.000917390700089 
-0.000165247041879 0.000351421536109 -0.000666253954596 
-4.89268596817e-05 0.000225734925714 -0.000457325928176 
1.46736450022e-05 0.000127422175589 -0.000286118806797 
4.1941935535e-05 5.34803101845e-05 -0.000138047562974 
4.09565623819e-05 1.62684230678e-06 -2.71064738364e-05 
2.41356244521e-05 -2.91469791757e-05 4.00089010785e-05 
8.71654365112e-07 -3.98220599554e-05 6.20339102153e-05 
-2.14370850142e-05 -2.92207753507e-05 3.81261167913e-05 
-3.64302759727e-05 2.99760141036e-06 -3.37798878595e-05 
-3.3655486768e-05 5.72772116128e-05 -0.000153318528786 
-2.69732644526e-06 0.00013443126031 -0.000310137201768 
6.68901941184e-05 0.000236906817539 -0.000491189383767 
0.000196166463542 0.000369336003034 -0.000721485068551 
0.000378371561328 0.000506636981926 -0.000975244184212 
0.000609268340814 0.000636305562101 -0.00124741301806 
0.000919872394821 5.29677704623e-05 -0.00856402463216 
0.000901612131895 0.000209524645214 -0.0108731350808 
0.000963677446433 0.000384055408645 -0.0134275272189 
0.00113849229844 0.000583040553807 -0.016226096647 
0.00105061971868 0.000899135083962 -0.0196438058119 
0.000609467734552 0.00128321155212 -0.0235161283369 
0.000216482804466 0.0016234630199 -0.0272500691477 
9.22214049828e-05 0.00188825083325 -0.0300935974928 
7.12142914469e-05 0.00200388877438 -0.0312395522942 
4.90748413907e-05 0.00192843424563 -0.030611366847 
-4.66997000208e-06 0.00167534009562 -0.028179576707 
-0.000204337572096 0.00130971380906 -0.0243803618286 
-0.000550120144538 0.000931738791281 -0.0201944032467 
-0.000843595636217 0.000604143978418 -0.0163919929063 
-0.000934590600798 0.000365774632968 -0.013252920485 
-0.000907910135856 0.000187001392968 -0.0106849161726 
-0.000876902623359 3.75388337994e-05 -0.00842112643255 
-0.00132217479429 0.000146940223134 -0.00863512296333 
-0.00324199674612 0.000224126075097 -0.00845102709465 
-0.00494049999762 0.000266246517047 -0.00799164758772 
-0.0063418532933 0.000303441928842 -0.00760764520269 
-0.00727934654785 0.000370775160957 -0.00741169772421 
-0.00775921452142 0.000433022625288 -0.00718765978604 
-0.00780541204635 0.000489913766603 -0.00689204764834 
-0.00747657937793 0.000536489187771 -0.00651109117073 
-0.00682258318621 0.0005768091085 -0.00603313669537 
-0.00588412771917 0.000620200569986 -0.00545380616035 
-0.0047891279045 0.000659404265118 -0.00481120977985 
-0.00368565539706 0.000695685357648 -0.00415932459915 
-0.00267674992836 0.000731550471295 -0.00346185198724 
-0.00181417388054 0.00075152755101 -0.00272561311799 
-0.00112111015841 0.000729126582718 -0.00196779762473 
0.00117260138655 0.000739665078232 -0.00204189292107 
0.00191640894516 0.000762157690536 -0.00284781587965 
0.0028320790122 0.000740157441585 -0.00363302714642 
0.00390313198132 0.000691044745001 -0.00437201301501 
0.00501042004188 0.000632328508162 -0.00501956817023 
0.00606464728339 0.000574007598109 -0.0055956628838 
0.00695646255647 0.000527225238833 -0.00609551038204 
0.00760102163377 0.000489795713992 -0.00652993246024 
0.00792170568837 0.000466403599378 -0.00691302283364 
0.00785098014897 0.000434369357444 -0.00724464061042 
0.00732779115413 0.00038551221254 -0.00751727003341 
0.00635037755567 0.00032880120722 -0.00778302110218 
0.00494920152898 0.000257178209467 -0.00802286017939 
0.00323006135732 0.000183674299481 -0.00823419220232 
0.00126428711778 0.000109285651683 -0.00836288084748 
0.00167043140829 0.000390737845835 -0.00200345070843 
0.00550970104403 0.00123487111718 -0.0124845098708 
-0.00415579692359 0.00104824334865 -0.013806720168 
-0.00248522051735 0.000605310028531 -0.00294348969895 
0.0021399798636 0.000542176066058 -0.00260790113528 
0.00314295568775 0.00067486528836 -0.00333209639978 
0.00428166399902 0.000844953505803 -0.00410551155507 
0.00657055332807 0.000969500320905 -0.00603579492026 
0.00761845522462 0.00113540319317 -0.00775929380127 
0.00765544122955 0.00117061413141 -0.00862109757881 
0.00728069970808 0.00114479334391 -0.00943588105622 
0.00635646986615 0.00104178916511 -0.0102592271557 
-0.00486705066628 0.000935166186858 -0.0115148662796 
-0.00645065552302 0.000956182137728 -0.009731328324 
-0.00724658454862 0.00114362308642 -0.00928576573168 
-0.00749067753544 0.00124291335705 -0.00883947800586 
-0.00747394489771 0.00127599342662 -0.00818542005675 
-0.00716044419244 0.00122377406273 -0.00723955016717 
-0.00657675735322 0.00112907038305 -0.00628389570635 
-0.00571729789171 0.00101267226417 -0.00534202944272 
-0.00468123509323 0.000884591933879 -0.00445984748076 
-0.00331095080206 0.000704768145452 -0.00350323194812 
-0.00131470352631 0.000465641900906 -0.0235163815979 
-0.0017220754935 0.000734725500473 -0.0185451463022 
-0.000822326426814 0.000194278763197 -0.0271699901695 
-0.000271482743445 4.21468476016e-05 -0.0290360590758 
0.000323956029032 2.3239369277e-05 -0.0291226171023 
0.000916701499641 0.00012531048429 -0.0274461236244 
0.00152435354101 0.000379578754412 -0.02382982388 
0.00175664522207 0.000718228313349 -0.0193547477438 
0.00359677635202 0.000936917086099 -0.0146505018064 
-0.00107006241992 0.000341442630033 -0.00156240827666 
-0.0006574151661 0.00013333783186 -0.000864242947719 
-0.000445430573854 -2.48246966754e-05 -0.000366595508988 
-6.36593010301e-05 -0.000119663001492 8.2469878619e-05 
6.73452620604e-06 -0.000134346145989 0.000118394956845 
7.97029671629e-05 -0.00011857881487 7.34930444134e-05 
0.00015298836624 -6.93658187226e-05 -6.49801831009e-05 
0.000240842084233 1.80893909274e-05 -0.000317498790868 
0.000377550239574 0.000144435868684 -0.000674708001273 
0.00103075759745 0.00031021776427 -0.00147686520644 
-0.0007835253331 0.000589264917787 -0.00152184079804 
-0.000486475780306 0.000434554892198 -0.00111992931444 
-0.000256868342293 0.00027778354527 -0.000752304316352 
-0.000119662625389 0.000143349479493 -0.000450234855519 
-4.94906538932e-05 4.33612646808e-05 -0.000211323987914 
-2.1039433096e-05 -2.72322353781e-05 -3.35217232319e-05 
-7.12939956112e-06 -6.66518567141e-05 6.66088224864e-05 
2.86428745401e-06 -7.9926987293e-05 9.73134200731e-05 
1.47537176562e-05 -6.61109317318e-05 6.081603188e-05 
3.36681699191e-05 -2.4629910876e-05 -4.87698517954e-05 
7.38851067145e-05 4.72562185836e-05 -0.000239015815549 
0.000155874353473 0.000151784432674 -0.000495650046558 
0.000316245620365 0.000293483816404 -0.000832757569359 
0.000593821836936 0.000456228018021 -0.00125587528902 
0.00089618407815 0.000610206005089 -0.00166458847291 
-0.00135323694818 0.000363472529246 -0.0109492263 
-0.00110747734959 0.000551922112041 -0.0136556891468 
-0.000726662430869 0.000690770239145 -0.0168891841848 
-0.000117118082711 0.000815017179122 -0.0194242374044 
-0.000515988033311 0.000834209959523 -0.0220153307045 
-0.000514179703995 0.000901351142574 -0.0255076878976 
-0.000316556851344 0.000932153583387 -0.0285629369622 
-1.98542960743e-05 0.000940833483872 -0.0300127142562 
0.000270517017419 0.000935587850991 -0.029710566734 
0.000546283783773 0.000892574476879 -0.0276548155732 
0.000741304612398 0.000843146701802 -0.0242385668753 
0.000800125670774 0.000792412196931 -0.0201983098232 
0.000850322420541 0.000663998961552 -0.0161411341901 
0.00104895064652 0.000488449403103 -0.0129983957942 
0.00120963162679 0.000299298390216 -0.0105162665546 
-0.00344294060282 0.000561354894078 -0.0107304736848 
-0.00512713906293 0.000554532980651 -0.00926126405087 
-0.00646244385087 0.000630547819493 -0.00864492930875 
-0.00728964738334 0.000751781618736 -0.00833216665458 
-0.00768050106096 0.00081474470121 -0.00789828782241 
-0.00768110707908 0.000857051442552 -0.00740504679347 
-0.00735532888681 0.000858049555614 -0.00679923348567 
-0.00670220529431 0.000833345494225 -0.006093225339 
-0.00573938552748 0.000795036317601 -0.00531865634901 
-0.0044374092568 0.000743831468749 -0.00441205712262 
-0.00320248794469 0.000679239925578 -0.0036178601731 
-0.00220281488752 0.000653297785742 -0.0028841134618 
-0.0014006837017 0.000631139046216 -0.00218280424253 
0.00159438668188 0.000650006563077 -0.00238523291741 
0.002539946376 0.000677311089337 -0.00318658812267 
0.00367393379093 0.000693744250298 -0.00399456840424 
0.00481812916594 0.0007060180896 -0.00472179664429 
0.00588933487471 0.000722335327032 -0.00540260306022 
0.00679610845549 0.000747808627281 -0.00605907359989 
0.00745937689357 0.000778734736707 -0.00670741069994 
0.00781076966722 0.000801363124227 -0.0073408628199 
0.00778047946571 0.000803181731228 -0.00794011290534 
0.00730062146672 0.000770253580902 -0.00850801622935 
0.00630566308247 0.00067920104373 -0.00904897052711 
0.00487221516073 0.000571083719185 -0.00968083929935 
0.00315278584001 0.000431263465985 -0.0101737466822 
-0.00163594369278 0.000528157420831 -0.00227052668984 
-0.00268660044196 0.000765379716571 -0.0138899290965 
0.00284450206198 0.0006466888144 -0.0124345515934 
-0.000971509751695 0.000481465031624 -0.0016516167257 
0.00123725683507 0.000507178029949 -0.00192071810632 
-0.00315868237869 -3.45834826108e-05 -0.00841998917203 
-0.00551621013291 0.000821134712195 -0.010117946932 
-0.000592361408342 0.000308020347149 -0.00111623270001 
-0.00033796546531 0.000142515504525 -0.000641932169913 
-0.000208178474471 1.48600435002e-05 -0.000287475857569 
0.000645046957903 0.000309146054341 -0.00115737978294 
0.0023291074465 0.000613479290133 -0.00288533587521 
0.00343978444007 0.000691696588638 -0.00369450419614 
0.00458691526466 0.000781019478669 -0.00446562641046 
0.00231301222218 0.000761805574138 -0.0153877808581 
0.00145794015181 0.000449743573422 -0.00200201214171 
-0.00382551914087 0.00078978752651 -0.00375782302788 
0.00471558491585 0.000898687269384 -0.0116317877052 
0.0062736984415 0.00118735362668 -0.00591270536108 
0.00694235696966 0.00134161647482 -0.00697325828256 
0.00732337305459 0.00148362480225 -0.00815267890534 
-0.000298202723707 -0.000130990955262 -6.83020966338e-05 
0.000171524926429 -0.000185239000551 6.65219319144e-05 
0.00537667984052 0.00102577253907 -0.00496861069726 
-0.000253202530793 -0.000262858205057 3.34366658148e-05 
</DataArray>
<DataArray type="Float64" Name="stresses" NumberOfComponents="6" format="ascii" >
48041.2961427 -3402.00327279 10607.3754702 608.280089916 -4415.2169809 1965.42849099  
40228.3608858 -1962.78981399 8477.63128901 -1719.68826569 -5937.85229581 2687.30939634  
-4684.06017603 9228.3429663 -272057.032551 -8095.654336 4588.08213746 62702.9488505  
-2329.01587376 3613.91778896 -261950.302393 -6401.65217497 4895.45210966 62394.0260092  
173.139683416 2267.84832239 -242973.638051 -5241.35806763 4443.33952347 64726.4472182  
20473.13978 763.547935999 -27757.8981204 3764.52041868 -4711.99420314 -18974.6156836  
15821.2105112 -830.168713997 4538.78992624 1907.09037798 -4602.85997391 -8630.38738623  
17303.5993716 -2304.01024594 15447.303435 734.603913143 -3952.36809735 -1873.7902132  
18633.5458274 -2786.66488492 17702.2285152 21.1332409072 -3545.15200495 -62.4134993396  
16913.8929378 -2262.92745249 16199.6656279 -629.295391236 -3821.09917889 1391.96590189  
-23414.8929473 10943.0224383 -202489.307516 -11994.4398217 1961.68040854 64731.2376931  
-9623.11186586 8090.51681068 -209149.045597 -9541.34166362 2538.03888524 72760.4590396  
-116.194195823 1256.65731998 -204592.327918 -5385.39682861 2184.1413111 80342.1001667  
51910.4288823 4093.85007542 -17062.3737581 5641.24140687 -7195.37866931 -21505.6716321  
14554.2813514 -906.506379531 6459.32790935 -1741.68464734 -4437.22041821 7918.5536221  
-40702.5182848 13374.3685756 -261799.097611 -15359.7663139 3532.99553046 60979.7669488  
-3709.23439576 4286.29911472 -210003.423352 -7101.03224675 2467.31441471 76269.3222457  
4130.497629 -984.809853249 -198001.744571 -3613.19441493 1731.105773 85141.3997331  
84617.2645192 -6553.81585665 980.006957565 2404.05074578 -7745.31958567 2085.0794658  
91873.6258846 -4000.80522514 4359.480763 5.28699566499 -4736.45923537 4084.98847464  
93079.3976389 -2965.36888861 5248.95335851 -62.4100379888 -3898.50916304 -42.1909232629  
51029.1942661 -3343.86504124 11626.2096644 -37.5678962488 -3732.85164913 -41.7842458799  
81513.5299119 -6687.60525662 1400.23481696 -2178.11640118 -8169.40888206 -3309.24028596  
-10450.0934724 12382.9875564 -365367.272982 -8708.5803124 5801.96434845 43393.3659299  
-6745.55948282 1535.339204 -344314.619582 -6519.7789191 9205.41019679 38964.0203355  
-2166.04366952 1958.0420677 -313418.150533 -5496.61464391 7513.04741588 36958.1508919  
105.313614035 2561.7968832 -282974.395547 -5077.4835183 7183.62181956 37372.9636036  
1256.19177997 1908.22386365 -251804.618574 -4744.4840862 8065.06589005 41277.9189659  
32202.4457945 12119.6152059 -205489.559723 -8337.76896809 -11436.9852725 33678.3332871  
16105.1558509 -3915.21651674 -208287.910237 1117.17275392 1820.07816318 -71916.9271173  
45975.2661422 -15475.6233815 -198165.144841 8625.26629755 3565.86460079 29339.8425387  
36326.4323101 -6228.31233763 -219116.117179 1986.60686874 -12548.3982819 155040.856675  
14688.9046276 -2321.36364092 -193809.682732 -1493.68161 1693.35583684 86987.697229  
37512.0994537 964.965724445 -188095.474381 1367.15425398 1915.96886535 78739.9995351  
52977.3426321 3603.79279728 -180385.296886 3459.86547208 2056.23338697 56845.2133019  
42263.397363 -2000.634716 -132678.992406 6911.71886585 390.436010663 -4728.29930354  
17827.8682662 786.971672561 -24113.0669486 -3600.35143058 -4670.78665167 18405.0553688  
29588.0116518 318.624066289 -85971.9976312 -6439.4349142 -2179.46298914 20634.8624413  
30067.7128307 -5968.55346961 -138504.318784 -6885.26489641 718.624204361 2929.26356893  
-10781.8616994 3278.37193037 -180618.335265 8035.54656787 -6847.25185063 -23718.1649849  
-5488.86484534 -5904.10162614 -12198.0719909 3198.11651948 -2705.54842833 -21905.0806722  
1090.56314136 -7337.48341114 -232833.402153 -4373.40129568 10448.6514393 50692.8032089  
1991.73901815 33873.0843007 -343810.35226 -24514.9882816 4804.62801373 52896.9630972  
-10612.4407654 20404.2808819 -285098.424481 17665.6587569 3975.28260612 -57504.6733308  
177.070615629 15270.1203052 -310306.08258 12687.1258312 3695.60949718 -54879.9497031  
-566.734450231 6004.60018642 -308359.309921 8289.03156554 5932.45795071 -46573.5663883  
-252.392588738 2478.06372273 -291971.537474 6446.5028104 5842.5098028 -44188.3839668  
440.136971725 1635.25837301 -269514.406356 5160.09234859 6507.12903349 -43753.7019191  
3901.49508381 2874.80466568 -241830.670656 4170.09913096 7975.22111165 -45722.8730966  
5561.69200214 -9477.86042454 -230806.913057 4437.12843449 11361.8742616 -54331.6402447  
159159.068237 34697.5404853 -55737.1583573 -22320.916309 6406.63563662 -221090.985005  
113206.976492 -27844.090949 -89949.0279267 -12480.9424588 18402.7951555 -142836.020552  
157409.640583 -42513.0429588 -95292.6105945 -6950.51265117 23952.8069699 -56409.0946931  
176196.667302 -40681.8724151 -94781.6360409 2217.81658893 24959.1196976 25478.1472395  
156972.449066 -35777.728945 -93002.8600678 11793.0394792 22706.999813 104118.608572  
130423.789566 -14793.3750593 -67455.8884977 21899.7549094 16753.9711181 163328.556036  
190306.094366 57646.2103681 -12071.0807014 41966.5565791 7112.00099557 209893.510852  
89998.3109779 -21410.7036866 -367264.715185 34314.276016 -52490.4202218 189674.312204  
68831.0000133 -12718.0285854 -126923.873345 -11735.0931775 7016.03332137 11359.3038413  
89895.3211671 7170.90118926 -110.284195056 -6595.65585544 -12592.8670268 12841.0445957  
95327.3729816 8053.44884894 2047.38371232 7112.9253302 -13247.6971259 -14066.0788924  
-26837.5744141 -507.156865143 -195094.239246 -5325.58763818 24825.7429232 -7767.87276021  
-35864.2426278 -6591.57826842 -171580.880969 -6211.85287011 21060.4609982 2027.15303441  
-36171.3611308 -8159.00581988 -145344.642183 -5564.11113634 16506.0053966 10694.4984036  
-32399.5680325 -8189.00696136 -118087.678173 -4303.57138123 12609.3330348 18900.6639874  
-25705.6661788 -5160.03222529 -79871.8445249 -2712.17082854 8624.27383003 23198.4004288  
-19509.4853433 -3059.8235019 -38672.5658724 -2188.60977557 4178.37820168 21439.6558692  
-15655.9551821 -1582.66731259 -7970.71964364 -1568.09122616 921.533138313 15921.4103997  
-13319.1687825 -838.59171083 10638.6437973 -771.520670489 -1063.69758991 8317.32482084  
-12586.613141 -693.001662525 16649.6592542 19.6227599273 -1709.96537555 91.2354839997  
-13616.9027396 -939.740507627 10318.3180449 858.075738003 -1102.43076372 -8164.32152111  
-15879.2403057 -1576.97895671 -8333.5521662 1573.77667681 785.362699291 -15517.7937306  
-19906.0527711 -3058.64337866 -39433.8938445 2243.25013279 3941.60052594 -20995.7213482  
-26013.6770788 -5232.27497153 -80675.1653884 2882.24637619 8347.06357535 -22905.3564941  
-32145.658198 -7482.85537157 -118717.013705 4400.95255786 12084.3984001 -18310.4798576  
-35541.7162025 -7672.47530841 -145665.154853 5781.17281946 15910.4911073 -10268.473533  
-34944.5689651 -5772.71451989 -171475.741396 6222.97379192 20276.9115896 -1637.14488375  
-25803.5445493 -28.7399615257 -195009.765733 5436.70684124 24572.7889422 7495.74421136  
3081.66502903 9302.20436765 -217426.621879 5821.48203388 28475.3462588 12407.3689739  
4484.45512633 -3236.31043965 9950.73302767 -2276.12675371 437.741295931 21142.7463924  
-6483.07175029 -6384.63815536 -14162.1940539 -3220.59217744 -2948.66633023 21276.9627357  
-35487.0630749 -11492.6071466 -35610.1313085 -1789.161827 -6893.94986151 -294.319756367  
-89064.2758441 -20846.2755448 -55634.7708379 2198.08708161 -9628.53010121 -37829.1724092  
-163684.664202 -34501.1554085 -60493.0748424 9589.53326744 -11998.060203 -75971.2815218  
-266133.468164 -49360.136234 -85421.7604459 14794.0708693 -12536.5794974 -134526.135565  
-197679.281382 46373.0830378 -20282.0376496 12070.2299783 -14459.3103526 -230464.779836  
-473457.638583 -226284.631297 -783856.984712 10308.0234622 8143.52057181 -223389.851794  
-377435.715252 -129178.309481 -734495.014453 9026.31488825 6445.42399658 -102495.003786  
-418031.961055 -131403.551392 -761506.584566 759.846321271 7744.04994816 -7392.77415607  
-383330.801762 -132574.508324 -744896.916524 -7524.13161706 6961.36764124 86681.9832227  
-458842.510104 -218515.742168 -789266.574722 -7899.4512773 8636.60759606 209066.893798  
-193715.64922 42625.771774 -50787.1973901 -9869.99648708 -14476.1165919 242410.706096  
-267715.214031 -49199.7758819 -95846.6193146 -13317.3235798 -12530.6466146 150299.595473  
-175991.932998 -39434.8499271 -73217.8225242 -9375.02790033 -12451.2734686 84119.5551072  
-94184.8241048 -24015.4831694 -60139.5042934 -2756.42018657 -9085.88285568 38320.2207569  
-34906.0317247 -11046.8293028 -33599.5712666 1513.79605696 -6538.35455961 -477.5182048  
4958.1499703 -2881.47198723 11178.0156629 2350.60748132 611.192776875 -21190.6482695  
-5024.43078867 -2688.36251842 16269.6221059 342.769374322 1286.9045265 28312.8416288  
-6359.60638017 -1268.81234794 20830.1321889 2964.60770485 1642.06855677 28288.8952346  
-4702.63419757 410.374717345 28377.8315079 5311.2108042 1885.38866635 25140.0451363  
-11796.0268068 -2813.60279301 31548.2489384 9441.87085952 1221.92452665 18415.976909  
-15596.590306 -4578.52946711 30859.916301 12014.8500258 580.296572839 5334.06169235  
-18177.4764957 -4598.2786929 18108.7865192 12400.4509146 -562.569976247 -13330.2549737  
-19564.1386934 -4189.78175667 -8809.73378678 10757.6510122 -1621.75462652 -29742.4782507  
-13975.4336965 -1329.80440082 -44129.2496763 9414.52019186 -2336.14826539 -46947.4340845  
-9035.47883925 -1726.88061374 -73142.4498656 7559.61384516 -2627.87034742 -52680.4725349  
-3409.71539382 -1082.29980515 -102315.124691 6185.79912262 -3516.43112164 -56888.2913974  
3129.75870558 192.752069632 -122862.646638 4258.18959508 -4250.81191334 -56139.0500764  
9229.40938627 2818.00072738 -143924.416205 1414.92241708 -4843.75034685 -52554.8849145  
13951.9914993 5539.72982814 -163159.975241 -876.284599988 -4634.55405504 -44134.898866  
16545.35096 7473.02640349 -178967.862403 -2310.05124634 -4196.50960657 -33003.6770495  
15854.4089861 8086.46502722 -190678.915513 -2941.22332261 -3499.05713585 -21418.6305811  
12762.9662082 7437.42796799 -199186.919311 -2933.89594386 -2126.77704601 -11789.0820025  
-650.688338994 -2014.63993506 -219000.081278 -3028.72367059 1269.65538512 -7963.9222521  
2519.75533731 8806.17840086 -217364.669231 -5849.06479785 28700.7298361 -12656.9795033  
-225.282812626 -1927.54691097 -219639.642282 3037.73411912 1189.13628106 7445.7693094  
12891.8069591 7655.57658219 -200153.991675 2980.49946211 -2152.35124808 11185.8471204  
14921.2034719 8045.30361957 -192295.816667 2920.1979185 -3645.65085995 20491.5009795  
14466.6385946 7073.90018049 -180823.607869 2331.84540772 -4575.87085329 31404.3614528  
11218.509987 4686.17645002 -164398.423964 865.496408271 -5284.9990332 41498.0881545  
7218.2147678 2027.22540244 -143293.085647 -1353.36950597 -5594.17193714 48879.8334356  
3487.76125697 348.956192346 -118487.028693 -4071.9563413 -5067.44282651 52363.0070088  
-2746.34485803 -1390.29584074 -95462.7882586 -5752.80394933 -3942.8076229 52787.1026557  
-7527.52868932 -1468.68937045 -67337.9936872 -7549.23985618 -2960.52339893 50682.0123619  
-13455.7983302 -1426.54896438 -39657.2930293 -9371.11596609 -2439.62803744 45364.8163295  
-19714.5016155 -3804.72807974 -8425.98055767 -10971.1532186 -1704.34977821 29639.8605817  
-19566.3833534 -3727.13028642 16377.1314168 -12826.0233501 -659.773025027 13706.2050453  
-16416.882494 -3955.35195719 29899.8596181 -11895.6620596 693.068438644 -5219.91036755  
-10202.6571435 -2439.66327898 33395.1859048 -9224.57772767 1629.90402435 -18665.3905619  
-6670.43589785 -1184.59186142 30441.8742228 -5745.89193257 2055.64894621 -25577.5388957  
-5408.41383761 -1248.73256473 24819.5388046 -2832.6987488 1790.59126366 -28717.8755885  
-4159.83183374 -2569.58141804 18584.0342643 -244.702376548 1345.50021368 -28714.2689749  
72392.4950109 -12025.0393584 -127910.062094 13199.8980192 7196.46297053 -11338.3173934  
-27295.6673609 17315.9239416 -357911.453373 -11247.685084 -17496.1466342 85094.8598409  
18764.991873 45503.5208797 -261236.25315 13958.397499 -5657.5558612 -78183.0152084  
78898.6673062 7942.05129579 -194707.863146 -12617.0216809 10673.193736 -41173.6661023  
75629.5927408 5846.73460542 -197169.401038 13015.0791066 11406.9695276 41784.9331138  
-8326.58789984 18788.3425444 -263379.764333 -12942.6810139 4276.87709653 63886.4438812  
-45809.5796397 3233.71255869 -274073.758783 -20243.1341761 -8785.48140298 39648.7788695  
-19326.1394645 20525.4452225 -215355.778022 19772.5621311 -3659.10862778 -36213.6181346  
-49958.5757556 6770.84840943 -245177.17718 14292.2355995 -425.577584981 -25893.5723018  
89034.0168117 -26859.702293 -330110.295124 -18969.141989 -37843.1875312 -198426.849256  
124823.53262 43896.7147891 -76756.8005607 18651.394135 13919.6066956 287651.088801  
74455.3118741 -24077.3453698 -296789.682282 20609.2596447 -16867.4824802 241088.702298  
135715.104334 47762.1356996 -276060.909941 5311.76019179 -31279.1618394 84507.7613649  
67480.7953189 -13642.7936175 -198473.913723 -10572.9882561 7874.42736103 -21423.1508956  
46934.6510657 -3490.70527239 11249.8321502 -474.589783375 -4326.72168731 -2436.52147714  
41167.1079894 -2462.83961376 6939.54338154 1999.11152031 -6342.94789617 -3588.44149232  
43350.3963109 -8128.69849207 -109168.437698 8049.33423677 -977.266535531 -21270.0251716  
4816.32028948 2656.60826344 -184113.99285 -5157.79099218 1569.91843471 -11603.2209438  
-1610.92864707 -95.5690007737 -161421.576515 -6193.7756622 2366.55895165 -7744.62659414  
-7049.64326871 -2723.4052628 -138657.539904 -6979.3511798 2664.15431152 1560.0000507  
-9578.93489103 -2141.70937961 -112870.139972 -6381.5542088 2251.10705495 11906.5413283  
-12258.2675976 -2146.85963479 -71019.9774414 -4156.10786638 62.3600448393 17965.8002693  
-13172.2778777 -1432.09023432 -30892.6065668 -2677.21459687 -1043.6582327 17588.0442229  
-13044.5503814 -674.08768238 -628.959694353 -1737.68933925 -1701.45836164 12609.2506065  
-12901.0887859 -723.303799266 15789.3622555 -854.090227109 -1909.78557197 6255.08216484  
-12737.8618722 -855.09134176 20742.2946877 46.2194525275 -1959.45718391 -56.9303510491  
-12801.3935128 -752.610870339 15209.069655 900.049235174 -1933.95269406 -6286.6129866  
-12850.1365864 -746.431700425 -2068.15177644 1841.1970541 -1797.45958949 -12638.4510161  
-12985.9130482 -1486.11394658 -33045.4016193 2772.33369092 -1272.87944311 -17231.6629766  
-11277.3024825 -1762.4801754 -74233.5541059 4483.58880134 -248.713747851 -17394.5549354  
-8564.84718795 -2563.74939456 -114831.540476 6649.16078129 1815.32919689 -10892.9818634  
-6132.32923462 -3288.61431728 -141662.501621 6954.74440025 2263.5256323 -121.36350274  
522.440287725 393.506833077 -162181.964713 6051.87011957 1732.6126797 8489.57157649  
6479.93504777 3266.34038885 -184224.238298 5066.54886088 1258.5314655 11255.8836995  
-21392.9942196 -5946.2556156 -33374.1550941 -12.5470454433 -2838.12088562 21984.1634275  
-49467.9310759 -12306.675252 -79734.1441239 1376.28289607 -7642.42615079 -19992.5126617  
-87222.8152994 -22941.5901385 -103190.693087 3525.00787046 -9752.17277308 -76355.7644187  
-107940.050133 -12457.8448193 -74602.5138692 3159.62881605 -7742.62439397 -137833.108157  
-123316.166898 2262.486824 -62310.2167937 3300.62065684 -5800.38095129 -210529.8697  
-135249.035576 5118.26868618 -142548.064534 7229.63830487 -11649.6498976 -283152.069276  
-228177.303116 -97615.7172879 -438746.502339 7108.27129113 439.588831003 -268561.377114  
-189817.857308 -77623.5411092 -509943.394025 1272.51294909 2217.26074889 -156013.058517  
-172312.690654 -63478.1563607 -522103.253306 302.262744366 4414.19288192 -22542.3480229  
-186911.387698 -74069.9392004 -522233.073903 -740.025310394 4129.91401857 114942.953014  
-196276.170589 -78852.8997172 -440411.319559 -5464.62743872 4173.55012004 244238.611857  
-108794.478341 13606.8759179 -159358.855101 -5989.82471731 -7049.07822554 288922.409385  
-119188.150137 -1013.83470177 -88929.24603 -2422.80201742 -8104.88152431 230528.311165  
-114916.948836 -20879.0167519 -99175.0292106 -3330.38635375 -9614.5394458 145165.975475  
-78290.7821773 -17393.176306 -93091.4379783 -3780.12171378 -8593.83071305 71212.1977755  
-41863.3290188 -7994.6719073 -66208.2442602 -1321.39981527 -6877.68439107 13519.779021  
-17229.9907415 -4239.04506427 -24860.1630772 445.837929387 -2558.23791593 -24711.27792  
-7727.82199022 2273.94152365 -51255.3793067 3595.54151623 -2180.45376824 16858.890999  
872.272711907 6879.202477 -67465.8133473 8269.08957366 -3294.94586905 19536.9166729  
-12445.4105535 3635.90894933 -79258.9467637 12175.9568225 -3856.64351568 15028.7619513  
-24781.2312384 -462.988800886 -86776.4146284 13860.7493222 -2203.5090076 -2489.38329661  
-28063.8122706 982.63768498 -90887.6115998 13582.0164541 -1617.44891024 -26647.5578078  
-25484.9048113 1457.05551612 -101964.030645 11656.8533169 -1697.23504615 -49471.4767048  
-15798.4303736 1317.96365521 -111962.221673 9181.62284941 -1079.60447935 -65294.2383029  
-7658.7054631 750.295154505 -124881.853164 7388.58191772 -1076.61858449 -74997.7043023  
-1051.07636414 -558.125048477 -139508.583247 5777.55806545 -1058.38859063 -79911.2557512  
4793.39304884 -860.304337922 -152364.40876 3986.63597713 -1448.1594051 -82057.1636054  
13743.0119286 1058.45358038 -161056.996957 1340.27814154 -1870.53224638 -78480.2611737  
24543.1653251 4352.91151687 -168236.286542 -1009.70096573 -1525.12932047 -66687.128131  
27203.1430867 5458.83440809 -175577.919617 -2458.08879471 -1819.32567876 -49918.26457  
24859.5564126 5907.97429815 -179544.159685 -3282.60657443 -2078.57503446 -32564.6394028  
18404.7373772 6622.76176049 -180466.834016 -3993.49799091 -1144.30060391 -19227.5552859  
21128.9011833 7963.45684544 -179915.903202 3935.0442643 -1370.97932035 18946.6464525  
25891.1507706 7254.08760544 -179037.247188 3390.89023086 -2339.90660954 33012.6471847  
24692.3523506 5775.41978702 -174693.554415 2292.25131569 -2192.81061998 49664.1733434  
18123.620754 3178.87141939 -166733.714815 456.192537323 -2095.98098953 65020.6711268  
10555.872131 594.500954535 -155836.818651 -1594.79446312 -2354.52019166 74874.8700362  
5240.01303314 -645.297514181 -143081.034703 -3797.34767567 -2066.65330937 78213.6710601  
-672.183429281 -603.034406376 -129827.934145 -5636.69251571 -1597.70288757 76925.6174748  
-8349.30113072 -700.001702583 -118751.26667 -7318.96112714 -1254.17900142 72534.5156157  
-15849.8856539 1150.47285809 -107669.633881 -9281.49369769 -1436.86878712 63772.8171894  
-26204.9304985 1561.12185817 -101122.512741 -12035.0310107 -1756.81854776 48204.6257677  
-31810.5274064 366.786718797 -96173.4695325 -14171.9077258 -2102.13787781 25093.632011  
-23933.2147318 2891.13709311 -86422.0640614 -13964.3995639 -2556.00842583 523.679432116  
-7083.13149872 5845.39138225 -75869.8310406 -10504.6025688 -2706.54525359 -15642.8291436  
-3158.61283989 4391.51845264 -60176.5944872 -6503.89609048 -2563.70678722 -21253.8739964  
-10776.385422 -320.643618197 -41395.2347608 -2697.95234507 -2428.16937117 -22015.923705  
71488.3531964 -12461.7182531 -195457.209838 12079.0589039 7871.54729415 18262.467553  
118658.564231 76451.353488 -186550.302862 -800.379374969 -16626.8964328 53311.2412789  
130244.612082 42053.717309 -225411.365786 -2973.4257575 -20908.0240702 -89258.4399082  
59569.4200655 1377.3613434 -190579.255414 -4721.90255043 3313.8498151 -59800.718586  
71450.7325409 1760.35030034 -187735.976923 7216.9534771 3617.90115879 47749.0828108  
56032.2289694 4240.66623127 -193495.153606 3814.50122222 5217.81682279 72818.4451744  
8788.33343271 -5105.30334635 -214579.961892 -1129.64193827 4620.86374267 77272.4824422  
-41995.4053554 8033.93110396 -198586.110019 -15982.1247125 44.042039969 44823.3061395  
-38570.6992516 1749.30784041 -207486.665191 -18480.3721442 -5957.33445753 19224.5193635  
43415.5427356 27495.1001539 -181635.443909 7179.10245615 -10660.0151654 -29604.4851108  
-36386.9786643 3099.5268051 -186955.314776 14901.3159461 -3613.90072905 -27729.0175694  
-31883.0191637 11460.4422477 -197585.000507 12386.2787746 -967.922943088 -50387.2915801  
-37038.2040028 6462.33220065 -223637.358345 10425.3184298 1994.40305219 -72087.1562266  
-6455.24939214 13244.9009612 -224744.60445 9627.74471037 4446.92737666 -73002.1024302  
-256.728461066 7688.39624749 -233226.234235 7569.61709125 3159.05886653 -72202.9207238  
3328.5287296 4689.87477736 -227405.028535 5874.90061743 3265.73768883 -72765.6102422  
6740.07307527 2351.47705798 -217610.434903 4373.09168233 3649.92712175 -75498.9951883  
11181.5690435 -997.230420398 -211879.346061 2161.07810964 4568.83472801 -76763.2762151  
55027.424962 8304.61477623 -186360.43379 -1338.41348756 4353.40339654 -77805.755785  
34480.5213667 -10296.047708 -169007.697967 -7646.86143061 8467.88170153 -272115.761234  
21152.7895423 -17279.2210737 -231140.006634 -4378.55567727 -7363.00387274 -238304.881289  
35752.0194361 -20138.2459703 -159557.674772 -6301.43616929 11898.2484687 -192321.766077  
35844.1624594 -31913.7999222 -182374.671087 -1256.24226529 16969.5246392 -68921.6469364  
38283.652204 -33995.7810333 -187995.926668 1857.99118729 17187.0861248 62091.9288787  
40547.4765359 -19102.223491 -157116.077479 6783.2334997 12494.2955504 185498.860127  
57217.9243896 473.246685706 -141162.567138 12778.8738415 3364.43888933 266368.378985  
52094.5389039 -1967.60873171 -209433.244026 12724.5668483 -9339.48425969 257454.892193  
95892.6545958 9493.6045328 -267633.79336 3694.19714327 -17499.3999554 121642.397964  
46672.3875844 -12723.0592608 -169303.563926 -7726.09973824 2474.71274899 -4178.86319813  
46722.6395877 -5016.88294803 -102567.854079 -7616.08791117 -1445.08844798 21611.1224504  
50417.7213036 4074.13386896 -15249.4155752 -5306.80305442 -6919.23217834 21566.2159287  
32927.4202604 549.271713237 -87883.1011178 6052.27131636 -1826.59657141 -20609.7137638  
49947.3481911 -13143.8399233 -168076.97634 8785.06770958 3336.00742648 815.512350252  
20912.4188279 4093.0557615 -163132.767033 -5381.20375072 -11.9125175435 -17342.2343083  
16787.3945101 -389.433619647 -145845.864481 -6417.28648343 950.310815525 -6937.47744224  
10956.0400797 -2017.60279271 -118567.712497 -6671.29934112 999.195543066 6938.49139705  
7168.16518619 497.159884328 -77055.7755875 -5648.75848048 -1595.07609186 18158.1774076  
-778.214751135 -165.981974794 -28211.6451471 -3123.95741283 -2912.71195407 17214.5592304  
-2943.24079987 -571.374177877 3340.71290694 -1759.79174117 -3130.61636913 10732.1895857  
-2663.3622385 -1318.46377003 17510.6921131 -779.740488768 -2926.30647493 4388.37008873  
-2208.43519284 -1758.66138307 21123.0777396 32.2056319426 -2858.20206877 -142.591157519  
-2192.29655444 -1276.67573498 16851.2413542 860.68497478 -3029.07587178 -4710.47981027  
-1652.07253212 -430.803537521 1440.31773689 1882.31528488 -3218.65949919 -11371.7114222  
1293.26380751 -109.355781426 -31009.4206999 3188.963579 -3063.31969206 -17382.4887355  
11113.9702724 1368.59436842 -78851.0108108 5790.64005369 -1852.23294202 -18264.3145262  
17097.567945 -365.939597135 -119161.384207 6902.14531021 160.44308375 -6312.68797154  
19291.5599531 -503.013238845 -150875.93784 6344.17241358 582.864260807 9997.86156002  
23805.5877638 4819.92971549 -164771.023818 5175.49184614 -529.020090354 19342.8897916  
-24496.2693686 -9520.87302902 -128736.645183 4981.58208692 -8430.53741848 -29520.26929  
-51825.262793 -28086.9790867 -178686.299639 1531.28567523 -10103.0622996 -103599.16864  
-11898.3200613 6433.34059488 -113840.340041 -3494.78591706 -7850.77506724 -188420.773599  
63807.6844609 78585.1860765 -6424.60282709 -5889.49945008 -7452.70365938 -230491.162363  
-75583.8232437 -28756.6967149 -205853.25688 4162.96006132 -12193.6171535 -275771.595356  
-88238.3030833 -49653.3979622 -280024.010357 -743.182255106 3137.02127978 -269692.997296  
-66441.2901048 -42214.7718323 -312288.673404 -1672.31112513 9606.81541083 -183211.108635  
-61030.4622004 -40793.4927867 -337520.860187 -1041.66235575 11720.5861476 -47168.6969275  
-57248.3664136 -35865.2729662 -322986.603319 735.490513125 11836.9228126 99081.6615754  
-40840.3875119 -19059.8960672 -249776.026412 656.996932833 8461.27634731 222124.55491  
-20163.8785552 6172.12526123 -165236.788616 1537.67508478 -761.303552208 281584.287171  
-28964.4017776 -2865.00141603 -156232.924927 3088.17762021 -9699.18261301 254833.715554  
-21655.4690368 -4989.6106619 -144715.166521 485.052884451 -10158.5555558 166497.070631  
-19354.2234384 -4621.07071578 -128328.618099 -2813.99234777 -9110.45120516 81549.5493131  
-16398.1990931 -853.268348168 -104238.662517 -3649.89873948 -7806.21596538 19344.4601771  
2644.63831068 -63.1045647409 -157038.285682 7358.96643302 -8302.17731076 -18853.9700438  
-22865.5126783 -4976.08492489 -154373.141468 11990.0663997 -6203.86424757 -2467.33438672  
-37588.0120484 -3927.24262801 -147440.844632 14093.7742657 -2580.08693798 -15199.7424899  
-35926.850809 5094.48978534 -144022.584429 14509.8896971 -1130.22656606 -37794.5659654  
-29769.5635567 3097.3343126 -157386.188712 12791.2120434 149.573584253 -59814.9364848  
-15791.7768502 5131.4849036 -166458.217918 9432.20522718 1056.80780018 -73922.0547851  
-4673.32951267 4307.73669126 -174482.683885 7483.36155017 1249.18451333 -79993.2238141  
1520.7388347 2117.79962418 -179591.803207 5811.90144911 904.91472467 -84461.46069  
5914.32925455 -411.87861274 -183225.626629 4244.89943842 1098.63746029 -87988.7331586  
21357.5457316 467.650993704 -184957.616659 661.628555444 1943.22426639 -86548.7853143  
37662.3490559 2365.29254259 -181479.150329 -1863.30188066 1047.97003987 -72620.3674968  
41842.2006824 3110.9891157 -177772.629407 -3330.48048912 -68.4147227578 -51265.6904885  
33075.59316 2434.60369757 -172842.030682 -4331.62444693 -650.610757483 -31744.6614864  
41722.4359798 6748.31197566 -168980.748914 4326.28407275 -1222.78403055 35151.5698623  
39851.3168415 5526.37945629 -173932.071482 2348.39819339 -259.437513985 56818.323811  
27266.9691682 1818.59666499 -176236.348827 395.395999118 27.2657278701 75939.9797899  
14278.5517517 -662.898334696 -173741.565579 -1690.66721584 -276.349890658 86008.5142948  
5757.09304268 -1021.38138133 -170305.097062 -3651.48217497 -84.6012657337 87586.9540665  
-536.540127627 -51.9059063482 -167488.708374 -5482.20313598 276.607092158 84588.6697512  
-6620.48045 2055.99781028 -163792.602665 -7300.76657216 600.300980356 79475.2417109  
-15177.6805398 4108.47804468 -158744.337681 -9429.65600674 569.361925938 71334.5992998  
-28009.2829007 4854.37304465 -153237.824897 -12214.1608539 -271.794867362 56828.5683739  
-40765.751872 2630.20278679 -150612.267644 -15064.8566597 -1699.36413764 33776.4309862  
-33244.2158697 358.898164713 -151684.275082 -15704.0573906 -4255.24752071 9385.03526822  
4178.28759131 10058.7693973 -132818.416108 -10516.1094047 -6178.10933728 3386.22147067  
14231.2914209 10078.6396582 -118098.639639 -6127.0459072 -6966.95310136 12203.702232  
49483.0548317 -4080.64738074 -183193.356517 -5201.29815467 1901.2844524 -36382.1987128  
25781.7403066 -11105.9409952 -231943.119254 1293.92841069 -10896.4774035 -109161.609059  
27273.3573757 4925.30860165 -170739.25023 -4422.89591639 -10995.0249925 65018.5790019  
34197.9788286 -3524.46361019 -164679.975444 -5726.49677826 660.658729554 -18173.277003  
45597.2778257 601.306380714 -164784.098489 5242.59122983 700.490404686 25347.1063328  
1184.96379465 -268.454593455 -224981.735862 -3908.10828124 4077.93742772 70147.3733099  
90352.7803674 -4324.39423742 4345.39445261 -120.012305014 -4927.48719686 -4439.95239569  
90352.7803674 -4324.39423742 4345.39445261 120.012305014 4927.48719686 -4439.95239569  
1184.96379465 -268.454593457 -224981.735862 3908.10828124 -4077.93742772 70147.3733099  
45597.2778257 601.306380714 -164784.098489 -5242.59122983 -700.490404686 25347.1063328  
34197.9788286 -3524.46361019 -164679.975444 5726.49677826 -660.658729554 -18173.277003  
27273.3573757 4925.30860165 -170739.25023 4422.89591639 10995.0249925 65018.5790019  
25781.7403066 -11105.9409952 -231943.119254 -1293.92841069 10896.4774035 -109161.609059  
49483.0548317 -4080.64738074 -183193.356517 5201.29815467 -1901.2844524 -36382.1987128  
14231.2914209 10078.6396582 -118098.639639 6127.0459072 6966.95310136 12203.702232  
4178.28759131 10058.7693973 -132818.416108 10516.1094047 6178.10933728 3386.22147067  
-33244.2158697 358.898164712 -151684.275082 15704.0573906 4255.24752071 9385.03526822  
-40765.751872 2630.20278679 -150612.267644 15064.8566597 1699.36413764 33776.4309862  
-28009.2829007 4854.37304465 -153237.824897 12214.1608539 271.794867362 56828.5683739  
-15177.6805398 4108.47804468 -158744.337681 9429.65600674 -569.361925938 71334.5992998  
-6620.48045 2055.99781029 -163792.602665 7300.76657216 -600.300980355 79475.2417109  
-536.540127628 -51.9059063488 -167488.708374 5482.20313598 -276.607092158 84588.6697512  
5757.09304268 -1021.38138133 -170305.097062 3651.48217497 84.6012657337 87586.9540665  
14278.5517517 -662.898334696 -173741.565579 1690.66721584 276.349890658 86008.5142948  
27266.9691682 1818.59666499 -176236.348827 -395.395999117 -27.2657278704 75939.9797899  
39851.3168415 5526.37945629 -173932.071482 -2348.39819339 259.437513985 56818.323811  
41722.4359798 6748.31197566 -168980.748914 -4326.28407275 1222.78403055 35151.5698623  
33075.59316 2434.60369757 -172842.030682 4331.62444693 650.610757483 -31744.6614864  
41842.2006824 3110.9891157 -177772.629407 3330.48048912 68.4147227577 -51265.6904885  
37662.3490559 2365.29254259 -181479.150329 1863.30188066 -1047.97003987 -72620.3674968  
21357.5457316 467.650993704 -184957.616659 -661.628555444 -1943.22426639 -86548.7853143  
5914.32925455 -411.878612741 -183225.626629 -4244.89943842 -1098.63746029 -87988.7331586  
1520.7388347 2117.79962418 -179591.803207 -5811.90144911 -904.914724669 -84461.46069  
-4673.32951267 4307.73669127 -174482.683885 -7483.36155017 -1249.18451333 -79993.2238141  
-15791.7768502 5131.4849036 -166458.217918 -9432.20522718 -1056.80780018 -73922.0547851  
-29769.5635567 3097.3343126 -157386.188712 -12791.2120434 -149.573584252 -59814.9364848  
-35926.850809 5094.48978534 -144022.584429 -14509.8896971 1130.22656606 -37794.5659654  
-37588.0120484 -3927.24262801 -147440.844632 -14093.7742657 2580.08693798 -15199.7424899  
-22865.5126783 -4976.08492489 -154373.141468 -11990.0663997 6203.86424757 -2467.33438672  
2644.63831068 -63.1045647412 -157038.285682 -7358.96643302 8302.17731076 -18853.9700438  
-16398.1990931 -853.268348168 -104238.662517 3649.89873948 7806.21596539 19344.4601771  
-19354.2234384 -4621.07071578 -128328.618099 2813.99234777 9110.45120516 81549.5493131  
-21655.4690368 -4989.6106619 -144715.166521 -485.052884451 10158.5555558 166497.070631  
-28964.4017776 -2865.00141603 -156232.924927 -3088.17762021 9699.18261301 254833.715554  
-20163.8785552 6172.12526123 -165236.788616 -1537.67508478 761.303552208 281584.287171  
-40840.3875119 -19059.8960672 -249776.026412 -656.996932833 -8461.27634731 222124.55491  
-57248.3664136 -35865.2729662 -322986.603319 -735.490513125 -11836.9228126 99081.6615754  
-61030.4622004 -40793.4927867 -337520.860187 1041.66235575 -11720.5861476 -47168.6969275  
-66441.2901048 -42214.7718323 -312288.673404 1672.31112513 -9606.81541083 -183211.108635  
-88238.3030833 -49653.3979622 -280024.010357 743.182255106 -3137.02127978 -269692.997296  
-75583.8232437 -28756.6967149 -205853.25688 -4162.96006132 12193.6171535 -275771.595356  
63807.6844609 78585.1860765 -6424.60282708 5889.49945008 7452.70365938 -230491.162363  
-11898.3200613 6433.34059488 -113840.340041 3494.78591706 7850.77506724 -188420.773599  
-51825.262793 -28086.9790867 -178686.299639 -1531.28567523 10103.0622996 -103599.16864  
-24496.2693686 -9520.87302901 -128736.645183 -4981.58208692 8430.53741848 -29520.26929  
23805.5877638 4819.92971549 -164771.023818 -5175.49184614 529.020090354 19342.8897916  
19291.5599531 -503.013238846 -150875.93784 -6344.17241358 -582.864260807 9997.86156002  
17097.567945 -365.939597135 -119161.384207 -6902.14531021 -160.44308375 -6312.68797154  
11113.9702724 1368.59436842 -78851.0108108 -5790.64005369 1852.23294202 -18264.3145262  
1293.26380751 -109.355781426 -31009.4206999 -3188.963579 3063.31969206 -17382.4887355  
-1652.07253212 -430.803537521 1440.31773689 -1882.31528488 3218.65949919 -11371.7114222  
-2192.29655444 -1276.67573498 16851.2413542 -860.68497478 3029.07587178 -4710.47981027  
-2208.43519284 -1758.66138307 21123.0777396 -32.2056319426 2858.20206877 -142.591157519  
-2663.3622385 -1318.46377003 17510.6921131 779.740488768 2926.30647493 4388.37008873  
-2943.24079987 -571.374177877 3340.71290694 1759.79174117 3130.61636913 10732.1895857  
-778.214751135 -165.981974794 -28211.6451471 3123.95741283 2912.71195407 17214.5592304  
7168.16518619 497.159884328 -77055.7755875 5648.75848048 1595.07609186 18158.1774076  
10956.0400797 -2017.60279271 -118567.712497 6671.29934112 -999.195543066 6938.49139705  
16787.3945101 -389.433619647 -145845.864481 6417.28648343 -950.310815525 -6937.47744224  
20912.4188279 4093.0557615 -163132.767033 5381.20375072 11.9125175434 -17342.2343083  
49947.3481911 -13143.8399233 -168076.97634 -8785.06770958 -3336.00742648 815.512350252  
32927.4202604 549.271713237 -87883.1011178 -6052.27131636 1826.59657141 -20609.7137638  
50417.7213036 4074.13386896 -15249.4155752 5306.80305442 6919.23217834 21566.2159287  
46722.6395877 -5016.88294803 -102567.854079 7616.08791117 1445.08844798 21611.1224504  
46672.3875844 -12723.0592608 -169303.563926 7726.09973824 -2474.71274899 -4178.86319813  
95892.6545958 9493.6045328 -267633.79336 -3694.19714327 17499.3999554 121642.397964  
52094.5389039 -1967.60873171 -209433.244026 -12724.5668483 9339.48425968 257454.892193  
57217.9243896 473.246685703 -141162.567138 -12778.8738415 -3364.43888933 266368.378985  
40547.4765359 -19102.223491 -157116.077479 -6783.2334997 -12494.2955504 185498.860127  
38283.652204 -33995.7810333 -187995.926668 -1857.99118729 -17187.0861248 62091.9288787  
35844.1624594 -31913.7999222 -182374.671087 1256.24226529 -16969.5246392 -68921.6469364  
35752.0194361 -20138.2459703 -159557.674772 6301.43616929 -11898.2484687 -192321.766077  
21152.7895423 -17279.2210737 -231140.006634 4378.55567727 7363.00387274 -238304.881289  
34480.5213667 -10296.047708 -169007.697967 7646.86143061 -8467.88170153 -272115.761234  
55027.424962 8304.61477623 -186360.43379 1338.41348756 -4353.40339654 -77805.755785  
11181.5690435 -997.230420398 -211879.346061 -2161.07810964 -4568.83472801 -76763.2762151  
6740.07307527 2351.47705798 -217610.434903 -4373.09168233 -3649.92712175 -75498.9951883  
3328.5287296 4689.87477736 -227405.028535 -5874.90061743 -3265.73768883 -72765.6102422  
-256.728461066 7688.39624749 -233226.234235 -7569.61709125 -3159.05886653 -72202.9207238  
-6455.24939214 13244.9009612 -224744.60445 -9627.74471037 -4446.92737666 -73002.1024302  
-37038.2040028 6462.33220065 -223637.358345 -10425.3184298 -1994.40305219 -72087.1562266  
-31883.0191637 11460.4422477 -197585.000507 -12386.2787746 967.922943088 -50387.2915801  
-36386.9786643 3099.5268051 -186955.314776 -14901.3159461 3613.90072905 -27729.0175694  
43415.5427356 27495.1001539 -181635.443909 -7179.10245615 10660.0151654 -29604.4851108  
-38570.6992516 1749.30784041 -207486.665191 18480.3721442 5957.33445753 19224.5193635  
-41995.4053554 8033.93110396 -198586.110019 15982.1247125 -44.0420399689 44823.3061395  
8788.33343271 -5105.30334635 -214579.961892 1129.64193827 -4620.86374267 77272.4824422  
56032.2289694 4240.66623127 -193495.153606 -3814.50122222 -5217.81682279 72818.4451744  
71450.7325409 1760.35030034 -187735.976923 -7216.9534771 -3617.90115879 47749.0828108  
59569.4200655 1377.36134341 -190579.255414 4721.90255043 -3313.8498151 -59800.718586  
130244.612082 42053.717309 -225411.365786 2973.4257575 20908.0240702 -89258.4399082  
118658.564231 76451.353488 -186550.302862 800.37937497 16626.8964328 53311.2412789  
71488.3531964 -12461.7182531 -195457.209838 -12079.0589039 -7871.54729415 18262.467553  
-10776.385422 -320.643618197 -41395.2347608 2697.95234507 2428.16937117 -22015.923705  
-3158.6128399 4391.51845264 -60176.5944872 6503.89609048 2563.70678722 -21253.8739964  
-7083.13149872 5845.39138226 -75869.8310406 10504.6025688 2706.54525359 -15642.8291436  
-23933.2147318 2891.13709311 -86422.0640614 13964.3995639 2556.00842583 523.679432117  
-31810.5274064 366.786718798 -96173.4695325 14171.9077258 2102.13787781 25093.632011  
-26204.9304985 1561.12185817 -101122.512741 12035.0310107 1756.81854776 48204.6257677  
-15849.8856539 1150.47285809 -107669.633881 9281.49369769 1436.86878712 63772.8171894  
-8349.30113072 -700.001702584 -118751.26667 7318.96112714 1254.17900142 72534.5156157  
-672.183429281 -603.034406376 -129827.934145 5636.69251571 1597.70288757 76925.6174748  
5240.01303314 -645.29751418 -143081.034703 3797.34767567 2066.65330937 78213.6710601  
10555.872131 594.500954535 -155836.818651 1594.79446312 2354.52019166 74874.8700362  
18123.620754 3178.87141939 -166733.714815 -456.192537323 2095.98098953 65020.6711268  
24692.3523506 5775.41978702 -174693.554415 -2292.25131569 2192.81061998 49664.1733434  
25891.1507706 7254.08760544 -179037.247188 -3390.89023086 2339.90660954 33012.6471847  
21128.9011833 7963.45684544 -179915.903202 -3935.0442643 1370.97932035 18946.6464525  
18404.7373772 6622.76176049 -180466.834016 3993.49799091 1144.30060391 -19227.5552859  
24859.5564126 5907.97429815 -179544.159685 3282.60657443 2078.57503446 -32564.6394028  
27203.1430867 5458.83440809 -175577.919617 2458.08879471 1819.32567876 -49918.26457  
24543.1653251 4352.91151687 -168236.286542 1009.70096573 1525.12932047 -66687.128131  
13743.0119286 1058.45358038 -161056.996957 -1340.27814154 1870.53224638 -78480.2611737  
4793.39304884 -860.304337922 -152364.40876 -3986.63597713 1448.1594051 -82057.1636054  
-1051.07636414 -558.125048477 -139508.583247 -5777.55806545 1058.38859063 -79911.2557512  
-7658.7054631 750.295154504 -124881.853164 -7388.58191772 1076.61858449 -74997.7043023  
-15798.4303736 1317.96365521 -111962.221673 -9181.62284941 1079.60447935 -65294.2383029  
-25484.9048113 1457.05551612 -101964.030645 -11656.8533169 1697.23504615 -49471.4767048  
-28063.8122706 982.637684979 -90887.6115998 -13582.0164541 1617.44891024 -26647.5578078  
-24781.2312384 -462.988800885 -86776.4146284 -13860.7493222 2203.5090076 -2489.3832966  
-12445.4105535 3635.90894933 -79258.9467637 -12175.9568225 3856.64351568 15028.7619513  
872.272711907 6879.202477 -67465.8133473 -8269.08957366 3294.94586905 19536.9166729  
-7727.82199022 2273.94152365 -51255.3793067 -3595.54151623 2180.45376824 16858.890999  
-17229.9907415 -4239.04506427 -24860.1630772 -445.837929385 2558.23791593 -24711.27792  
-41863.3290188 -7994.6719073 -66208.2442602 1321.39981527 6877.68439107 13519.779021  
-78290.7821773 -17393.176306 -93091.4379783 3780.12171378 8593.83071305 71212.1977755  
-114916.948836 -20879.0167519 -99175.0292106 3330.38635375 9614.5394458 145165.975475  
-119188.150137 -1013.83470177 -88929.24603 2422.80201742 8104.88152431 230528.311165  
-108794.478341 13606.8759179 -159358.855101 5989.82471731 7049.07822554 288922.409385  
-196276.170589 -78852.8997172 -440411.319559 5464.62743872 -4173.55012004 244238.611857  
-186911.387698 -74069.9392004 -522233.073903 740.025310394 -4129.91401857 114942.953014  
-172312.690654 -63478.1563607 -522103.253306 -302.262744366 -4414.19288192 -22542.3480229  
-189817.857308 -77623.5411092 -509943.394025 -1272.51294909 -2217.26074889 -156013.058517  
-228177.303116 -97615.7172879 -438746.502339 -7108.27129113 -439.588831002 -268561.377114  
-135249.035576 5118.26868618 -142548.064534 -7229.63830487 11649.6498976 -283152.069276  
-123316.166898 2262.486824 -62310.2167937 -3300.62065684 5800.38095129 -210529.8697  
-107940.050133 -12457.8448193 -74602.5138692 -3159.62881605 7742.62439397 -137833.108157  
-87222.8152994 -22941.5901385 -103190.693087 -3525.00787046 9752.17277308 -76355.7644187  
-49467.9310759 -12306.675252 -79734.1441239 -1376.28289607 7642.42615079 -19992.5126617  
-21392.9942196 -5946.2556156 -33374.1550941 12.5470454456 2838.12088562 21984.1634275  
6479.93504777 3266.34038885 -184224.238298 -5066.54886088 -1258.5314655 11255.8836995  
522.440287724 393.506833077 -162181.964713 -6051.87011957 -1732.6126797 8489.57157649  
-6132.32923462 -3288.61431728 -141662.501621 -6954.74440025 -2263.5256323 -121.36350274  
-8564.84718795 -2563.74939456 -114831.540476 -6649.16078129 -1815.32919689 -10892.9818634  
-11277.3024825 -1762.4801754 -74233.5541059 -4483.58880134 248.713747851 -17394.5549354  
-12985.9130482 -1486.11394658 -33045.4016193 -2772.33369092 1272.87944311 -17231.6629766  
-12850.1365864 -746.431700425 -2068.15177644 -1841.1970541 1797.45958949 -12638.4510161  
-12801.3935128 -752.610870339 15209.069655 -900.049235174 1933.95269406 -6286.6129866  
-12737.8618722 -855.09134176 20742.2946877 -46.2194525275 1959.45718391 -56.9303510491  
-12901.0887859 -723.303799266 15789.3622555 854.090227109 1909.78557197 6255.08216484  
-13044.5503814 -674.08768238 -628.959694353 1737.68933925 1701.45836164 12609.2506065  
-13172.2778777 -1432.09023432 -30892.6065668 2677.21459687 1043.6582327 17588.0442229  
-12258.2675976 -2146.85963479 -71019.9774414 4156.10786638 -62.3600448392 17965.8002693  
-9578.93489103 -2141.70937961 -112870.139972 6381.5542088 -2251.10705495 11906.5413283  
-7049.64326871 -2723.4052628 -138657.539904 6979.3511798 -2664.15431152 1560.0000507  
-1610.92864707 -95.5690007736 -161421.576515 6193.7756622 -2366.55895165 -7744.62659414  
4816.32028948 2656.60826344 -184113.99285 5157.79099218 -1569.91843471 -11603.2209438  
43350.3963109 -8128.69849207 -109168.437698 -8049.33423677 977.266535531 -21270.0251716  
41167.1079894 -2462.83961376 6939.54338154 -1999.11152031 6342.94789617 -3588.44149232  
46934.6510657 -3490.70527239 11249.8321502 474.589783375 4326.72168731 -2436.52147714  
67480.7953189 -13642.7936175 -198473.913723 10572.9882561 -7874.42736103 -21423.1508956  
135715.104334 47762.1356996 -276060.909941 -5311.76019179 31279.1618394 84507.7613649  
74455.3118741 -24077.3453698 -296789.682282 -20609.2596447 16867.4824802 241088.702298  
124823.53262 43896.7147891 -76756.8005607 -18651.394135 -13919.6066956 287651.088801  
89034.0168117 -26859.702293 -330110.295124 18969.141989 37843.1875312 -198426.849256  
-49958.5757556 6770.84840942 -245177.17718 -14292.2355995 425.577584981 -25893.5723018  
-19326.1394645 20525.4452225 -215355.778022 -19772.5621311 3659.10862778 -36213.6181346  
-45809.5796397 3233.71255869 -274073.758783 20243.1341761 8785.48140298 39648.7788695  
-8326.58789985 18788.3425444 -263379.764333 12942.6810139 -4276.87709653 63886.4438812  
75629.5927408 5846.73460542 -197169.401038 -13015.0791066 -11406.9695276 41784.9331138  
78898.6673062 7942.05129579 -194707.863146 12617.0216809 -10673.193736 -41173.6661023  
18764.991873 45503.5208797 -261236.25315 -13958.397499 5657.5558612 -78183.0152084  
-27295.6673609 17315.9239416 -357911.453373 11247.685084 17496.1466342 85094.8598409  
72392.4950109 -12025.0393584 -127910.062094 -13199.8980192 -7196.46297053 -11338.3173934  
-4159.83183374 -2569.58141803 18584.0342643 244.702376547 -1345.50021367 -28714.2689749  
-5408.41383761 -1248.73256473 24819.5388046 2832.6987488 -1790.59126366 -28717.8755885  
-6670.43589785 -1184.59186142 30441.8742228 5745.89193257 -2055.64894621 -25577.5388957  
-10202.6571435 -2439.66327898 33395.1859048 9224.57772767 -1629.90402435 -18665.3905619  
-16416.882494 -3955.35195719 29899.8596181 11895.6620596 -693.068438643 -5219.91036755  
-19566.3833534 -3727.13028642 16377.1314168 12826.0233501 659.773025027 13706.2050453  
-19714.5016155 -3804.72807974 -8425.98055767 10971.1532186 1704.34977821 29639.8605817  
-13455.7983302 -1426.54896438 -39657.2930293 9371.11596609 2439.62803744 45364.8163295  
-7527.52868932 -1468.68937045 -67337.9936872 7549.23985618 2960.52339893 50682.0123619  
-2746.34485803 -1390.29584074 -95462.7882586 5752.80394933 3942.8076229 52787.1026557  
3487.76125697 348.956192345 -118487.028693 4071.9563413 5067.44282651 52363.0070088  
7218.2147678 2027.22540244 -143293.085647 1353.36950597 5594.17193714 48879.8334356  
11218.509987 4686.17645002 -164398.423964 -865.496408271 5284.9990332 41498.0881545  
14466.6385946 7073.90018049 -180823.607869 -2331.84540772 4575.87085329 31404.3614528  
14921.2034719 8045.30361957 -192295.816667 -2920.1979185 3645.65085995 20491.5009795  
12891.8069591 7655.57658219 -200153.991675 -2980.49946211 2152.35124808 11185.8471204  
-225.282812626 -1927.54691097 -219639.642282 -3037.73411912 -1189.13628106 7445.7693094  
2519.75533731 8806.17840086 -217364.669231 5849.06479785 -28700.7298361 -12656.9795033  
-650.688338994 -2014.63993506 -219000.081278 3028.72367059 -1269.65538512 -7963.9222521  
12762.9662082 7437.42796799 -199186.919311 2933.89594386 2126.77704601 -11789.0820025  
15854.4089861 8086.46502722 -190678.915513 2941.22332261 3499.05713585 -21418.6305811  
16545.35096 7473.02640349 -178967.862403 2310.05124634 4196.50960657 -33003.6770495  
13951.9914993 5539.72982814 -163159.975241 876.284599988 4634.55405504 -44134.898866  
9229.40938627 2818.00072738 -143924.416205 -1414.92241708 4843.75034685 -52554.8849145  
3129.75870558 192.752069632 -122862.646638 -4258.18959508 4250.81191334 -56139.0500764  
-3409.71539382 -1082.29980515 -102315.124691 -6185.79912262 3516.43112164 -56888.2913974  
-9035.47883925 -1726.88061374 -73142.4498656 -7559.61384516 2627.87034742 -52680.4725349  
-13975.4336965 -1329.80440082 -44129.2496763 -9414.52019186 2336.14826539 -46947.4340845  
-19564.1386934 -4189.78175667 -8809.73378678 -10757.6510122 1621.75462652 -29742.4782507  
-18177.4764957 -4598.2786929 18108.7865192 -12400.4509146 562.569976247 -13330.2549737  
-15596.590306 -4578.52946711 30859.916301 -12014.8500258 -580.296572839 5334.06169235  
-11796.0268068 -2813.60279301 31548.2489384 -9441.87085952 -1221.92452665 18415.976909  
-4702.63419757 410.374717346 28377.8315079 -5311.2108042 -1885.38866635 25140.0451363  
-6359.60638017 -1268.81234794 20830.1321889 -2964.60770485 -1642.06855677 28288.8952346  
-5024.43078868 -2688.36251842 16269.6221059 -342.769374323 -1286.9045265 28312.8416288  
4958.1499703 -2881.47198724 11178.0156629 -2350.60748132 -611.192776877 -21190.6482695  
-34906.0317247 -11046.8293028 -33599.5712666 -1513.79605696 6538.35455961 -477.518204801  
-94184.8241048 -24015.4831694 -60139.5042934 2756.42018657 9085.88285568 38320.2207569  
-175991.932998 -39434.8499271 -73217.8225242 9375.02790034 12451.2734686 84119.5551072  
-267715.214031 -49199.7758819 -95846.6193146 13317.3235798 12530.6466146 150299.595473  
-193715.64922 42625.771774 -50787.1973901 9869.99648708 14476.1165919 242410.706096  
-458842.510104 -218515.742168 -789266.574722 7899.4512773 -8636.60759605 209066.893798  
-383330.801762 -132574.508324 -744896.916524 7524.13161706 -6961.36764124 86681.9832227  
-418031.961055 -131403.551392 -761506.584566 -759.846321272 -7744.04994816 -7392.77415607  
-377435.715252 -129178.309481 -734495.014453 -9026.31488825 -6445.42399658 -102495.003786  
-473457.638583 -226284.631297 -783856.984712 -10308.0234622 -8143.52057181 -223389.851794  
-197679.281382 46373.0830378 -20282.0376496 -12070.2299783 14459.3103526 -230464.779836  
-266133.468164 -49360.136234 -85421.7604459 -14794.0708693 12536.5794974 -134526.135565  
-163684.664202 -34501.1554085 -60493.0748424 -9589.53326744 11998.060203 -75971.2815218  
-89064.2758441 -20846.2755448 -55634.7708379 -2198.08708161 9628.53010121 -37829.1724092  
-35487.0630749 -11492.6071466 -35610.1313085 1789.161827 6893.94986151 -294.319756367  
-6483.07175029 -6384.63815536 -14162.1940539 3220.59217744 2948.66633023 21276.9627357  
4484.45512633 -3236.31043965 9950.73302767 2276.12675371 -437.741295931 21142.7463924  
3081.66502903 9302.20436765 -217426.621879 -5821.48203388 -28475.3462588 12407.3689739  
-25803.5445493 -28.7399615258 -195009.765733 -5436.70684124 -24572.7889422 7495.74421136  
-34944.5689651 -5772.71451989 -171475.741396 -6222.97379192 -20276.9115896 -1637.14488375  
-35541.7162025 -7672.47530841 -145665.154853 -5781.17281946 -15910.4911073 -10268.473533  
-32145.658198 -7482.85537157 -118717.013705 -4400.95255786 -12084.3984001 -18310.4798576  
-26013.6770788 -5232.27497153 -80675.1653884 -2882.24637619 -8347.06357535 -22905.3564941  
-19906.0527711 -3058.64337866 -39433.8938445 -2243.25013279 -3941.60052594 -20995.7213482  
-15879.2403057 -1576.97895671 -8333.5521662 -1573.77667681 -785.362699291 -15517.7937306  
-13616.9027396 -939.740507627 10318.3180449 -858.075738003 1102.43076372 -8164.32152111  
-12586.613141 -693.001662525 16649.6592542 -19.6227599273 1709.96537555 91.2354839998  
-13319.1687825 -838.59171083 10638.6437973 771.520670489 1063.69758991 8317.32482084  
-15655.9551821 -1582.66731259 -7970.71964364 1568.09122616 -921.533138313 15921.4103997  
-19509.4853433 -3059.8235019 -38672.5658724 2188.60977557 -4178.37820168 21439.6558692  
-25705.6661788 -5160.03222529 -79871.8445249 2712.17082854 -8624.27383003 23198.4004288  
-32399.5680325 -8189.00696136 -118087.678173 4303.57138123 -12609.3330348 18900.6639874  
-36171.3611308 -8159.00581988 -145344.642183 5564.11113634 -16506.0053966 10694.4984036  
-35864.2426278 -6591.57826842 -171580.880969 6211.85287011 -21060.4609982 2027.15303441  
-26837.5744141 -507.156865143 -195094.239246 5325.58763818 -24825.7429232 -7767.87276021  
95327.3729816 8053.44884894 2047.38371232 -7112.9253302 13247.6971259 -14066.0788924  
89895.3211671 7170.90118926 -110.284195056 6595.65585544 12592.8670268 12841.0445957  
68831.0000133 -12718.0285854 -126923.873345 11735.0931775 -7016.03332137 11359.3038413  
89998.3109779 -21410.7036866 -367264.715185 -34314.276016 52490.4202218 189674.312204  
190306.094366 57646.2103681 -12071.0807014 -41966.5565791 -7112.00099557 209893.510852  
130423.789566 -14793.3750593 -67455.8884977 -21899.7549094 -16753.9711181 163328.556036  
156972.449066 -35777.728945 -93002.8600678 -11793.0394792 -22706.999813 104118.608572  
176196.667302 -40681.8724151 -94781.6360409 -2217.81658893 -24959.1196976 25478.1472395  
157409.640583 -42513.0429588 -95292.6105945 6950.51265117 -23952.8069699 -56409.0946931  
113206.976492 -27844.090949 -89949.0279267 12480.9424588 -18402.7951555 -142836.020552  
159159.068237 34697.5404853 -55737.1583573 22320.916309 -6406.63563662 -221090.985005  
5561.69200214 -9477.86042454 -230806.913057 -4437.12843449 -11361.8742616 -54331.6402447  
3901.49508381 2874.80466568 -241830.670656 -4170.09913096 -7975.22111165 -45722.8730966  
440.136971725 1635.25837301 -269514.406356 -5160.09234859 -6507.12903349 -43753.7019191  
-252.392588738 2478.06372273 -291971.537474 -6446.5028104 -5842.5098028 -44188.3839668  
-566.734450231 6004.60018642 -308359.309921 -8289.03156554 -5932.45795071 -46573.5663883  
177.07061563 15270.1203052 -310306.08258 -12687.1258312 -3695.60949718 -54879.9497031  
-10612.4407654 20404.2808819 -285098.424481 -17665.6587569 -3975.28260612 -57504.6733308  
1991.73901815 33873.0843007 -343810.35226 24514.9882816 -4804.62801373 52896.9630972  
1090.56314135 -7337.48341114 -232833.402153 4373.40129568 -10448.6514393 50692.8032089  
-5488.86484534 -5904.10162614 -12198.0719909 -3198.11651948 2705.54842833 -21905.0806722  
-10781.8616994 3278.37193037 -180618.335265 -8035.54656787 6847.25185063 -23718.1649849  
30067.7128307 -5968.55346961 -138504.318784 6885.26489641 -718.624204361 2929.26356893  
29588.0116518 318.624066289 -85971.9976312 6439.4349142 2179.46298914 20634.8624413  
17827.8682662 786.971672561 -24113.0669486 3600.35143058 4670.78665167 18405.0553688  
42263.397363 -2000.634716 -132678.992406 -6911.71886585 -390.436010663 -4728.29930354  
52977.3426321 3603.79279728 -180385.296886 -3459.86547208 -2056.23338697 56845.2133019  
37512.0994537 964.965724445 -188095.474381 -1367.15425398 -1915.96886535 78739.9995351  
14688.9046276 -2321.36364092 -193809.682732 1493.68161 -1693.35583684 86987.697229  
36326.4323101 -6228.31233763 -219116.117179 -1986.60686874 12548.3982819 155040.856675  
45975.2661422 -15475.6233815 -198165.144841 -8625.26629755 -3565.86460079 29339.8425387  
16105.1558509 -3915.21651674 -208287.910237 -1117.17275392 -1820.07816318 -71916.9271173  
32202.4457945 12119.6152059 -205489.559723 8337.76896809 11436.9852725 33678.3332871  
1256.19177997 1908.22386364 -251804.618574 4744.4840862 -8065.06589005 41277.9189659  
105.313614036 2561.7968832 -282974.395547 5077.4835183 -7183.62181956 37372.9636036  
-2166.04366952 1958.0420677 -313418.150533 5496.61464391 -7513.04741588 36958.1508919  
-6745.55948282 1535.339204 -344314.619582 6519.7789191 -9205.41019679 38964.0203355  
-10450.0934724 12382.9875564 -365367.272982 8708.5803124 -5801.96434845 43393.3659299  
81513.5299119 -6687.60525662 1400.23481696 2178.11640118 8169.40888206 -3309.24028596  
51029.1942661 -3343.86504124 11626.2096644 37.5678962488 3732.85164913 -41.7842458799  
93079.3976389 -2965.36888861 5248.95335851 62.4100379889 3898.50916304 -42.1909232629  
91873.6258846 -4000.80522514 4359.480763 -5.28699566501 4736.45923537 4084.98847464  
84617.2645192 -6553.81585665 980.006957565 -2404.05074578 7745.31958567 2085.0794658  
4130.497629 -984.809853248 -198001.744571 3613.19441493 -1731.105773 85141.3997331  
-3709.23439576 4286.29911472 -210003.423352 7101.03224675 -2467.31441471 76269.3222457  
-40702.5182848 13374.3685756 -261799.097611 15359.7663139 -3532.99553046 60979.7669488  
14554.2813514 -906.506379531 6459.32790935 1741.68464734 4437.22041821 7918.5536221  
51910.4288823 4093.85007542 -17062.3737581 -5641.24140687 7195.37866931 -21505.6716321  
-116.194195823 1256.65731998 -204592.327918 5385.39682861 -2184.1413111 80342.1001667  
-9623.11186586 8090.51681068 -209149.045597 9541.34166362 -2538.03888524 72760.4590396  
-23414.8929473 10943.0224383 -202489.307516 11994.4398217 -1961.68040854 64731.2376931  
16913.8929378 -2262.92745249 16199.6656279 629.295391236 3821.09917889 1391.96590189  
18633.5458274 -2786.66488492 17702.2285152 -21.1332409072 3545.15200495 -62.4134993396  
17303.5993716 -2304.01024594 15447.303435 -734.603913143 3952.36809735 -1873.7902132  
15821.2105112 -830.168713997 4538.78992624 -1907.09037798 4602.85997391 -8630.38738623  
20473.13978 763.547935999 -27757.8981204 -3764.52041868 4711.99420314 -18974.6156836  
173.139683416 2267.84832239 -242973.638051 5241.35806763 -4443.33952347 64726.4472182  
-2329.01587376 3613.91778896 -261950.302393 6401.65217497 -4895.45210967 62394.0260092  
-4684.06017603 9228.3429663 -272057.032551 8095.654336 -4588.08213746 62702.9488505  
40228.3608858 -1962.78981399 8477.63128901 1719.68826569 5937.85229581 2687.30939634  
48041.2961427 -3402.00327279 10607.3754702 -608.280089916 4415.2169809 1965.42849099  
4418.47870965 5434.3198201 -264608.113415 -7209.90227257 -35422.7234033 19161.1615049  
-16183.4259241 -10789.1316999 -254867.264612 1753.20051796 -2826.84359769 -1131.58940655  
-843.710129281 4846.99924435 -229992.888648 -655.955642492 2494.71025269 5361.02405399  
-1283.92061295 3002.1547057 -221935.703189 -1331.27880708 7660.54674355 10805.8558923  
649.522304878 2564.0805618 -203444.381349 -1142.51844193 11625.0876138 16828.077789  
2977.0472904 2094.20921472 -174871.574293 -92.4286073221 15107.9480041 22422.4670949  
7730.74744959 2632.54414412 -136149.016277 1521.24501774 17741.8710809 27028.8674808  
13031.1496432 3343.13786215 -91136.4017385 4340.19133424 18486.8059315 31863.3006542  
12052.8086091 2355.57507811 -25947.4190576 5746.19875119 15448.7372162 32365.088889  
17299.0930483 6341.72193859 41954.4608787 7497.83245501 12313.4690206 31625.4051986  
18620.2356615 7546.52163718 103605.485541 8939.86010042 9248.20638077 26503.6498226  
23381.3440189 10315.6888847 138955.161549 9228.85176288 4825.47015296 15871.4427507  
27802.5383526 12307.5121374 154016.170603 9083.51795152 -19.5608113175 5833.5476846  
28340.9111158 12419.5681711 155933.754668 8428.7037421 -5014.62168581 -3087.20514449  
25134.8939901 10788.8962071 145861.442881 7250.10587211 -9155.54209919 -10247.1212389  
17589.6106489 7116.06466269 126800.843827 5613.43132026 -11533.8983672 -16648.7341482  
9854.83002177 2580.29103834 97004.0779283 3670.70966879 -11710.5666762 -20578.5717307  
4889.13100841 -628.500681374 56102.7139083 1467.89379521 -9216.51197824 -19533.6961388  
6759.21752326 -1969.81288508 23967.9630481 -788.70045358 -5263.43601087 -13418.1653631  
7267.89272136 -1757.40313548 24760.1112113 691.708958036 -5265.34774365 13628.5720985  
4800.67747615 -761.834953658 56242.3324229 -1844.73218561 -9074.32643824 20612.1974573  
9846.86574372 2325.62536194 95346.4427969 -4018.97419144 -11377.2456713 21771.0139082  
17064.5561301 6409.3056906 125222.820187 -5741.72585427 -11355.920217 18389.8322117  
23430.6709519 9894.36652449 143372.47264 -7419.16205863 -9080.91813561 11406.6115551  
27191.3507964 12069.8315369 153928.611428 -8652.46757846 -4981.91096388 4660.74853359  
27653.3809759 12388.7709905 152745.068669 -9093.58619022 -52.7867404544 -2606.82860714  
22189.9929206 9850.98954458 137894.947922 -8970.29216142 4637.77340258 -12134.697162  
18516.1873204 7345.03746041 101695.775443 -8589.06001306 8724.72291191 -23016.0461501  
17982.814849 6281.15423057 41115.9241406 -7245.27964589 11858.734055 -30816.557021  
14828.8178742 2710.23144103 -24120.8652742 -5334.76897459 14988.8759034 -32617.3721114  
16536.7107905 4184.2800645 -87989.703795 -3844.77641311 17844.6384635 -33265.2958577  
10899.9807157 3857.83271964 -132754.955478 -948.077612421 17363.6468214 -29394.7408043  
6072.55820275 3550.92510273 -171017.731221 364.736079826 15000.4544606 -24401.962039  
2554.82186896 3575.1133905 -200515.676378 1203.09249149 11692.3389402 -18258.6551236  
-180.082347063 3591.74776787 -219918.369863 1279.33887175 7774.03059801 -11623.0242693  
-517.328424962 5034.98177182 -228824.397269 574.852311436 2627.66543991 -5777.25550766  
-16145.0514719 -10769.1170131 -254223.629835 -1791.89169185 -2699.91629993 857.012024638  
3815.99001671 5231.84841536 -264518.497295 7144.5426562 -35348.4355684 -19462.1154444  
9159.10403701 -1604.14087101 11536.8022269 -3865.92149946 -2282.42290566 -8016.00082833  
17913.503933 -1529.47320716 9181.02578056 7393.62270295 123.6704509 13501.851845  
35227.7686666 -1835.48072076 1997.8009271 10886.0489588 2520.18529009 16744.4703795  
48168.5602526 -866.16258812 2571.05389672 8756.34119037 4576.38890972 7031.64105052  
32052.4700682 -2480.60961815 -2053.42355971 93.9667074735 6933.34567189 -13535.6251716  
-15109.8635285 -1342.21674661 12047.4154306 -14444.2079839 6498.74983615 -37690.6731803  
-135417.179845 -16598.5578214 -5061.30374157 -50587.3278392 17031.4055734 -67441.1828031  
-160741.783317 77073.285833 94403.2642703 -132006.079107 -14295.9769718 -242616.157804  
-806251.498627 -220058.43273 -1031009.58254 -121258.810773 96150.7506725 -234962.336974  
-795297.541851 -113173.68757 -937757.649281 -35383.5343444 72507.8158013 -39457.2363844  
-846560.778039 -134343.441954 -971985.310961 -45.4582147422 76063.2237312 5195.86391105  
-800247.328854 -116282.633842 -938888.125557 35249.5091606 70972.2399356 51758.1743571  
-802576.699225 -226178.324009 -1048260.65681 121653.863467 90415.6772455 242609.16166  
-175519.033295 61346.2942414 49486.2532449 125983.089779 -21486.105303 256497.726438  
-152926.073549 -27037.6968712 -16264.0074162 50251.0838836 13957.0447464 71838.9313071  
-23345.7851223 -5194.30907672 7724.24785046 15272.4038537 6991.05068887 38293.3591486  
30229.9516259 -2645.54227779 -3163.84092467 353.069607346 7199.8196982 15455.3831373  
48399.8668903 -763.797084414 2578.14012358 -8638.7267184 4462.34102061 -6575.44061354  
35501.2388317 -1597.34787705 2530.97904679 -10886.8947583 2310.68109932 -16450.16246  
17801.4600852 -1453.65496797 9377.48812082 -7407.99698654 61.2533452435 -13437.2109371  
9430.88359155 -1490.57835186 11863.882293 3863.30617611 -2316.51992119 8150.82559903  
-325179.006711 -325164.690597 -535018.843447 -23.4607720343 -86693.2235922 65786.9447011  
-231424.373557 -231446.098758 -395216.985199 44.0399848052 -76568.9525855 -30707.8031227  
-182410.541227 -182283.426066 -321924.094075 30.0928200413 -67282.5648172 -11146.4730829  
-141310.404274 -141130.777324 -260733.983109 37.4086060984 -56652.1825752 1387.85827129  
-104182.832809 -103998.940874 -205351.942931 59.1633455622 -45256.5784131 10224.3282456  
-68919.1060226 -68401.3724983 -158429.635296 70.2966889305 -36562.3050016 17995.1073386  
-43463.7082841 -43552.889982 -101222.83968 7.21579526373 -23061.0586452 19178.5707054  
-21405.8772197 -21401.2720231 -49931.6961907 6.26648406479 -12157.7575842 17983.3956993  
-4269.14235527 -4264.63447465 -9946.30589356 4.09255156481 -3797.32714104 13625.5089279  
6235.41220261 6242.67716973 14573.5116965 0.972578719824 1370.31972678 7232.172999  
9680.73271359 9686.3365358 22607.0557391 0.917306197684 3066.93516114 33.26551356  
6040.32851294 6038.18594139 14086.9579584 0.576342003098 1279.46783352 -7130.93915592  
-4527.67068433 -4528.09489278 -10565.9789583 -0.157877915233 -3842.05647512 -13292.1090871  
-21683.0893493 -21682.7764614 -50592.8321886 0.573699817826 -12185.5874577 -17584.6527654  
-43808.256077 -43895.5207073 -102047.58895 -1.71202465641 -23109.4214873 -18890.2872717  
-69212.761808 -68698.0998712 -158971.657957 -49.9793841825 -36404.3752422 -17528.6031766  
-104450.031594 -104231.53946 -205866.144343 -20.9388784902 -45154.0505534 -9937.0302558  
-141246.723741 -141042.1509 -260773.790657 -19.4299509098 -56273.632385 -1151.95289413  
-182878.593169 -182734.193676 -322642.219907 -26.3095372676 -67243.758084 11185.5801831  
-232061.944909 -232041.960464 -396145.673361 -33.0772503841 -76496.4772756 30711.2501135  
-324597.397844 -324619.405636 -534201.42677 30.4237374246 -86648.4233294 -65832.6562549  
192752.144886 35745.2148975 57339.2987638 21149.8894861 11112.2088378 21327.3388613  
147943.738139 13036.1785136 28106.1369883 -2863.56828654 4015.64042988 -1466.12906373  
126643.563938 4581.86304516 15872.1322705 -2616.93866394 2892.00653396 -2105.8605806  
121065.474898 3268.43604599 12720.695816 -137.131169078 2403.13006672 533.600469362  
125545.622386 4084.46992965 14772.257633 2295.61425559 2902.67190589 3090.66111112  
145060.064418 11487.6405996 24419.3554744 2929.57781197 3923.22230538 3526.29488985  
194174.373247 35718.2495555 54223.7006431 -20959.2293245 10440.2912899 -17644.9987706  
241164.812046 58292.0763185 25148.7207705 112048.348713 -15014.4000208 -207721.393123  
351978.385642 12990.8370128 28285.9491604 54523.7428395 -23012.4097051 -104459.885984  
462189.527804 22868.1080092 62508.6308493 25950.863919 -24944.1299384 -60478.9318991  
502549.262307 29541.7039951 75400.4802379 664.345735509 -23148.3156673 -19237.7573713  
488102.529692 37730.9436389 80682.9305133 -23224.2870226 -18918.8122966 22534.991777  
421226.640904 49402.5760661 86588.8487827 -53505.9427492 -16248.986488 65486.7352065  
281845.417731 81622.0612852 71994.5291295 -121809.213623 -12709.4374663 153570.772586  
110241.72678 3191.34833456 -151305.410913 27750.4523323 -27329.3507516 -179.177436174  
-119824.749395 -43538.7901626 -613457.035666 -27650.0320915 17033.6013888 -23277.1763878  
-87131.2601655 -37636.1956674 -499077.971535 -5510.33769517 -19341.9828661 -18716.1369249  
-41268.2443635 -12811.6252429 -415756.614457 -4145.13345935 -16503.6034723 -17934.5321493  
-33550.5033029 -12156.1014634 -376179.720654 -3523.71904876 -14212.3609502 -16143.9372164  
-29217.1123894 -11954.8779299 -341870.085788 -3148.58191666 -13897.2687604 -16994.1068575  
-27671.2469656 -15194.0471974 -310463.041255 -3139.0676544 -16055.2539214 -19083.3720953  
-22469.443184 -21386.9941462 -287206.87559 -4161.75948529 -35518.1232777 -34995.1490907  
-95374.8302771 -55739.1637187 -535242.694208 47186.8749214 48256.8309558 -172745.908083  
-136759.859449 -84386.4545122 -588160.565433 -54983.0686875 65614.9632733 163312.036197  
-29072.3409872 -23292.171376 -285943.615854 9065.68546574 -34498.7042324 36612.8900649  
-18800.9951475 -11285.502813 -303403.385272 4432.30052731 -15402.2088645 22772.2397289  
-15275.3109079 -5846.70653275 -331520.042497 4696.0651726 -13466.5887666 19958.1659203  
-15945.763633 -4799.12834478 -364224.732624 4772.16331558 -13463.4965115 19682.3618989  
-15034.1452365 -1449.33481138 -396477.516756 4939.4411976 -15035.3456501 21299.6200917  
-51727.0485089 -26336.9277406 -476317.40847 2710.44996358 -19825.4840163 19957.6855218  
-102950.069911 -54586.0492384 -635900.052027 26133.1935815 14722.8520211 33275.5700268  
112008.00657 4960.36082959 -151574.392144 -27958.8486842 -28418.2393996 4469.86511064  
-64312.0325715 -76824.6305606 -670730.461895 -199.760250244 -25616.2283705 57165.7817417  
-63033.2449123 -48060.0542484 -522369.357703 1249.80324497 7855.45443029 9939.84672179  
-20540.4242904 -10550.132523 -418453.005184 259.682925831 13145.9161123 13727.4104039  
-18848.3930311 -9867.24094909 -377050.642392 -98.5796268816 13345.110644 12637.6671429  
-17271.4599033 -11190.7052053 -342465.54609 -293.292208324 13816.6678088 12800.9780924  
-16279.420424 -15720.3538021 -312055.39113 -474.614975673 17142.4687634 12868.1425511  
-19253.9061298 -24468.8553849 -276473.549521 -916.81861489 29068.0901204 17534.7528768  
-73121.4680096 -120718.949495 -676139.402967 -2613.19194867 -25621.6446748 59043.2544019  
-52089.8506857 -48059.2618248 -520685.96082 407.055594733 3133.3021297 13231.2256614  
-18819.5985808 -12475.2249661 -428488.28964 -298.537952346 11315.7408116 12796.3616612  
-19038.6968951 -11974.9945573 -385834.166211 -298.637173694 13851.6856926 10739.7337594  
-16950.5106644 -13724.5813929 -347684.843751 -433.511029581 15207.9128801 10253.9359337  
-15258.4820205 -19246.489387 -311574.550707 -302.135564109 17918.9321168 9777.12553861  
-25544.47125 -40026.184341 -281184.504728 -588.351016176 25700.29249 17057.0811798  
-74841.1011494 -146025.560578 -676653.925528 -929.183450634 -14362.838971 58503.654716  
-50245.1764344 -59341.0224922 -521225.929063 132.847355193 76.1804824722 13227.9567751  
-16194.0356382 -14581.5780747 -430290.780568 -231.634442851 5527.34526874 12744.6853912  
-18056.5737611 -13324.7306822 -389593.49748 -232.983291087 7859.98851382 10059.9354098  
-16803.6143759 -15948.3675898 -350572.908105 -220.47677816 9009.41610649 9248.09726268  
-16837.2205311 -24685.4544338 -314984.64369 -70.9354402026 10266.715346 8967.92293232  
-27315.7894115 -43619.9268417 -284526.219952 -197.386322351 13281.6137544 16106.0759649  
-75601.9843609 -153413.041124 -676073.160635 4.5406522986e-10 3.90230070479e-10 58125.0874941  
-50159.5131851 -64324.0722495 -521576.204271 -6.59383658785e-11 1.06410880107e-10 13233.169378  
-15618.3495726 -16364.2757297 -430924.38787 -1.83490556083e-10 -2.62616595137e-11 12687.8922614  
-17608.8022913 -13883.9157136 -390470.108747 1.4620127331e-10 1.20394361147e-10 9922.11331477  
-16868.9747639 -17014.5769381 -351725.23947 -1.07093001134e-10 9.4559027275e-11 9037.82270372  
-17347.0073819 -26145.9537964 -316207.170058 -2.694378054e-11 -1.42904355016e-10 8740.07113536  
-27481.5627761 -43722.0855848 -285350.097298 3.97903932026e-13 4.32009983342e-12 15868.7700569  
-74841.1011494 -146025.560578 -676653.925528 929.183450635 14362.838971 58503.654716  
-50245.1764344 -59341.0224922 -521225.929063 -132.847355193 -76.1804824719 13227.9567751  
-16194.0356382 -14581.5780747 -430290.780568 231.634442851 -5527.34526874 12744.6853912  
-18056.5737611 -13324.7306822 -389593.49748 232.983291087 -7859.98851382 10059.9354098  
-16803.6143759 -15948.3675898 -350572.908105 220.47677816 -9009.41610649 9248.09726268  
-16837.2205311 -24685.4544338 -314984.64369 70.9354402028 -10266.715346 8967.92293232  
-27315.7894116 -43619.9268417 -284526.219952 197.386322351 -13281.6137544 16106.0759649  
-73121.4680096 -120718.949495 -676139.402967 2613.19194867 25621.6446748 59043.2544019  
-52089.8506857 -48059.2618248 -520685.96082 -407.055594733 -3133.3021297 13231.2256614  
-18819.5985808 -12475.2249661 -428488.28964 298.537952346 -11315.7408116 12796.3616612  
-19038.6968951 -11974.9945573 -385834.166211 298.637173694 -13851.6856926 10739.7337594  
-16950.5106644 -13724.5813929 -347684.843751 433.511029581 -15207.9128801 10253.9359337  
-15258.4820205 -19246.489387 -311574.550707 302.135564109 -17918.9321168 9777.12553861  
-25544.47125 -40026.184341 -281184.504728 588.351016176 -25700.29249 17057.0811798  
-64312.0325715 -76824.6305606 -670730.461895 199.760250244 25616.2283705 57165.7817417  
-63033.2449123 -48060.0542484 -522369.357703 -1249.80324497 -7855.45443029 9939.84672179  
-20540.4242904 -10550.132523 -418453.005184 -259.682925831 -13145.9161123 13727.4104039  
-18848.3930311 -9867.24094909 -377050.642392 98.5796268817 -13345.110644 12637.6671429  
-17271.4599033 -11190.7052053 -342465.54609 293.292208324 -13816.6678088 12800.9780924  
-16279.420424 -15720.3538021 -312055.39113 474.614975673 -17142.4687634 12868.1425511  
-19253.9061298 -24468.8553849 -276473.549521 916.81861489 -29068.0901204 17534.7528768  
-29072.3409872 -23292.171376 -285943.615854 -9065.68546574 34498.7042324 36612.8900649  
-18800.9951475 -11285.502813 -303403.385272 -4432.30052731 15402.2088645 22772.2397289  
-15275.3109079 -5846.70653275 -331520.042497 -4696.0651726 13466.5887666 19958.1659203  
-15945.763633 -4799.12834478 -364224.732624 -4772.16331558 13463.4965115 19682.3618989  
-15034.1452365 -1449.33481138 -396477.516756 -4939.4411976 15035.3456501 21299.6200917  
-51727.0485089 -26336.9277406 -476317.40847 -2710.44996358 19825.4840163 19957.6855218  
-102950.069911 -54586.0492384 -635900.052027 -26133.1935815 -14722.8520211 33275.5700268  
112008.00657 4960.36082959 -151574.392144 27958.8486842 28418.2393996 4469.86511064  
120076.10232 22824.8292577 -118346.703497 -20066.6823332 -22370.3449364 7987.26659896  
119547.372422 27445.0360023 -118288.281859 -17062.3470101 -18811.341684 7734.10983144  
119001.479572 31567.5200865 -118969.476961 -8633.60792291 -9534.45251906 6983.52784559  
118667.941143 32673.1739446 -119685.416742 -8.60230405427e-12 -4.50128823104e-11 6658.24670458  
119001.479572 31567.5200865 -118969.476961 8633.60792291 9534.45251906 6983.52784559  
119547.372422 27445.0360023 -118288.281859 17062.3470101 18811.341684 7734.10983144  
120076.10232 22824.8292577 -118346.703497 20066.6823332 22370.3449364 7987.26659896  
-136759.859449 -84386.4545122 -588160.565433 54983.0686875 -65614.9632733 163312.036197  
-287409.704493 -205366.584783 -665947.846966 -55848.0276587 41501.8934952 189795.872585  
-300898.298426 -268769.973099 -675661.941176 -46866.3361165 36023.6045186 187585.545953  
-306538.357588 -299629.622387 -677550.317953 -24059.4143584 18301.0642904 184876.858611  
-305252.195931 -305449.329347 -675552.494287 -2.74515817485e-10 4.84912258495e-10 183681.898709  
-306538.357588 -299629.622387 -677550.317953 24059.4143584 -18301.0642904 184876.858611  
-300898.298426 -268769.973099 -675661.941176 46866.3361165 -36023.6045186 187585.545953  
-287409.704493 -205366.584783 -665947.846966 55848.0276587 -41501.8934952 189795.872585  
-82899.4615046 -69889.9725237 -649329.584842 -5884.11903179 24627.320186 -50687.2776943  
-99578.6086758 -63731.901394 -546612.338862 -126.509967403 -7130.22845725 -7979.58468173  
-49745.1489544 -25768.4053485 -440966.590937 1293.23931391 -13499.9923993 -7489.44275134  
-37366.7416106 -18815.0481302 -390142.999314 1405.63875759 -13740.7400253 -7387.85855968  
-30561.4911644 -17828.1114253 -352915.531241 1424.2400799 -14113.2283169 -8629.70278777  
-26082.0342317 -20706.831466 -319807.332776 1279.09334059 -17527.4099428 -8535.75239239  
-17064.5009136 -24591.2210043 -278944.394024 2123.9740634 -29621.73722 -15972.5309099  
-102780.496816 -126088.131354 -665566.346147 -6372.63805334 24600.0384106 -55529.4085992  
-90345.3299032 -70249.9381412 -547167.241739 -1760.43769245 -2608.04596128 -13143.2545874  
-49881.6068118 -31498.881291 -453034.758627 -347.185472001 -11359.8089085 -6976.4018086  
-39090.6066674 -23519.3695848 -400854.911746 501.486847048 -14082.2495741 -5281.29022626  
-31279.121829 -22288.3156707 -359443.022578 733.72365943 -15481.4912546 -5910.30799462  
-25644.2232033 -25249.6264953 -319810.461842 822.606638665 -18285.9799609 -5771.52713438  
-23029.1513938 -39953.9098435 -283653.163643 1191.01849111 -26104.645149 -15476.345847  
-110409.931984 -156744.146157 -671031.80299 -2186.85099948 13858.6467383 -55846.4897317  
-91665.8389037 -85809.0604779 -550690.524973 -1109.89313206 253.562772233 -14361.8581328  
-48428.3654884 -35837.8701982 -455965.437214 -427.231393821 -5452.30641815 -7552.6748176  
-38812.7492709 -26126.4679577 -405277.290188 81.3984875863 -7876.62147277 -4782.10018403  
-31574.6302306 -25329.0087379 -362798.963656 341.272887787 -9122.46642293 -4961.91370155  
-27565.0764835 -31206.9594256 -323592.30797 434.645773725 -10436.0058848 -4913.26012747  
-25446.5496424 -44011.8613733 -287583.209029 643.645351445 -13443.4144907 -14358.6159304  
-112336.908172 -165542.679369 -671704.81267 1.15960574476e-11 3.18323145621e-10 -55667.1631441  
-92270.9197337 -91482.9923623 -551644.450183 -4.88853402203e-11 1.28920873976e-10 -14658.3043525  
-48371.0918128 -38450.3633972 -457072.59189 4.47926140623e-11 9.95328264253e-11 -7701.4878542  
-38524.758108 -27044.4248328 -406275.987911 3.43334249919e-11 3.8721736928e-10 -4751.57905931  
-31711.4802149 -26574.8310702 -364010.602371 5.03632691107e-11 -7.94102561485e-11 -4762.89669463  
-28206.9845511 -32832.8212613 -324935.624678 -3.72892827727e-11 9.09494701773e-12 -4669.60350647  
-25762.8485875 -44213.8339207 -288569.632011 3.87103682442e-11 1.19030119095e-10 -14067.3816688  
-110409.931984 -156744.146157 -671031.80299 2186.85099948 -13858.6467383 -55846.4897317  
-91665.8389037 -85809.0604779 -550690.524973 1109.89313206 -253.562772233 -14361.8581328  
-48428.3654884 -35837.8701982 -455965.437214 427.231393821 5452.30641815 -7552.6748176  
-38812.7492709 -26126.4679577 -405277.290188 -81.3984875861 7876.62147277 -4782.10018403  
-31574.6302306 -25329.0087379 -362798.963656 -341.272887787 9122.46642293 -4961.91370155  
-27565.0764835 -31206.9594256 -323592.30797 -434.645773725 10436.0058848 -4913.26012747  
-25446.5496424 -44011.8613733 -287583.209029 -643.645351445 13443.4144907 -14358.6159304  
-102780.496816 -126088.131354 -665566.346147 6372.63805334 -24600.0384106 -55529.4085992  
-90345.3299032 -70249.9381412 -547167.241739 1760.43769245 2608.04596128 -13143.2545874  
-49881.6068118 -31498.881291 -453034.758627 347.185472002 11359.8089085 -6976.4018086  
-39090.6066674 -23519.3695848 -400854.911746 -501.486847048 14082.2495741 -5281.29022626  
-31279.121829 -22288.3156707 -359443.022578 -733.72365943 15481.4912546 -5910.30799462  
-25644.2232033 -25249.6264953 -319810.461842 -822.606638665 18285.9799609 -5771.52713438  
-23029.1513938 -39953.9098435 -283653.163643 -1191.01849111 26104.645149 -15476.345847  
-82899.4615046 -69889.9725237 -649329.584842 5884.11903179 -24627.320186 -50687.2776943  
-99578.6086758 -63731.901394 -546612.338862 126.509967403 7130.22845725 -7979.58468173  
-49745.1489544 -25768.4053485 -440966.590937 -1293.23931391 13499.9923993 -7489.44275134  
-37366.7416106 -18815.0481302 -390142.999314 -1405.63875759 13740.7400253 -7387.85855968  
-30561.4911644 -17828.1114253 -352915.531241 -1424.2400799 14113.2283169 -8629.70278777  
-26082.0342317 -20706.831466 -319807.332776 -1279.09334059 17527.4099428 -8535.75239239  
-17064.5009136 -24591.2210043 -278944.394024 -2123.9740634 29621.73722 -15972.5309099  
-119824.749395 -43538.7901626 -613457.035666 27650.0320915 -17033.6013888 -23277.1763878  
-87131.2601655 -37636.1956674 -499077.971535 5510.33769517 19341.9828661 -18716.1369249  
-41268.2443635 -12811.6252429 -415756.614457 4145.13345935 16503.6034723 -17934.5321493  
-33550.5033029 -12156.1014634 -376179.720654 3523.71904877 14212.3609502 -16143.9372164  
-29217.1123894 -11954.8779299 -341870.085788 3148.58191666 13897.2687604 -16994.1068575  
-27671.2469656 -15194.0471974 -310463.041255 3139.0676544 16055.2539214 -19083.3720953  
-22469.443184 -21386.9941462 -287206.87559 4161.75948529 35518.1232777 -34995.1490907  
116734.743945 20482.0602268 -119859.084686 -19998.4519529 21932.4685584 -4536.26220943  
116681.86288 26188.2976444 -119445.465089 -17346.0645616 18478.5044975 -4302.82526762  
116080.52166 30365.194716 -120380.275111 -8775.24688117 9384.30474644 -3574.95183848  
115715.427806 31476.6252123 -121165.621587 -2.90375131347e-12 2.58069121628e-11 -3250.42899235  
116080.52166 30365.194716 -120380.275111 8775.24688117 -9384.30474644 -3574.95183848  
116681.86288 26188.2976444 -119445.465089 17346.0645616 -18478.5044975 -4302.82526762  
116734.743945 20482.0602268 -119859.084686 19998.4519529 -21932.4685584 -4536.26220943  
110241.72678 3191.34833456 -151305.410913 -27750.4523323 27329.3507516 -179.177436174  
-262483.488276 -181983.092099 -625347.548807 -47947.56698 -34400.9544877 -189441.921887  
-281720.679818 -243324.431314 -639557.874311 -42671.8025635 -31807.1322429 -186151.061752  
-290391.111261 -277932.707497 -645423.978294 -22299.8460519 -16083.5373805 -183024.166244  
-290696.763169 -285904.332928 -645084.0398 -2.39500271467e-11 -2.53749021795e-10 -181763.363308  
-290391.111261 -277932.707497 -645423.978294 22299.8460519 16083.5373805 -183024.166244  
-281720.679818 -243324.431314 -639557.874311 42671.8025635 31807.1322429 -186151.061752  
-262483.488276 -181983.092099 -625347.548807 47947.56698 34400.9544877 -189441.921887  
-95374.8302771 -55739.1637187 -535242.694208 -47186.8749214 -48256.8309558 -172745.908083  
230967.734433 76526.9185976 57163.7519122 92328.8872456 -3113.86067979 103018.330999  
232043.734465 100991.510822 65569.3244524 77116.0217675 -2246.57826953 105223.097341  
233168.102259 99509.0266947 68277.4715229 38186.7722499 -1028.53409528 102181.418831  
232209.396961 96094.1029161 67729.1806006 5.34782884642e-10 -1.37788447319e-10 101392.417765  
233168.102259 99509.0266947 68277.4715229 -38186.7722499 1028.53409528 102181.418831  
232043.734465 100991.510822 65569.3244524 -77116.0217675 2246.57826953 105223.097341  
230967.734433 76526.9185976 57163.7519122 -92328.8872456 3113.86067979 103018.330999  
463209.845674 78886.0938114 78443.5309673 52293.2655392 -6076.15580048 29869.3042309  
454250.000492 105415.85192 80059.1125119 49946.8195833 -4261.15340157 26832.9581843  
456797.268922 129009.9813 87484.6617346 26358.5407914 -2624.43572885 25422.0427599  
456559.038657 134619.426731 89454.372982 5.29325916432e-10 -1.30057742354e-10 24926.2945226  
456797.268922 129009.9813 87484.6617346 -26358.5407914 2624.43572885 25422.0427599  
454250.000492 105415.85192 80059.1125119 -49946.8195833 4261.15340157 26832.9581843  
463209.845674 78886.0938114 78443.5309673 -52293.2655392 6076.15580048 29869.3042309  
558061.011228 82468.5012113 91133.5191153 24025.8643793 -4658.84107153 6836.84778825  
561327.247736 108757.759178 93357.8002134 25145.5026106 -3114.43976546 4250.10483526  
558015.377343 129290.226144 96788.7869069 14075.9255256 -2081.99659689 3689.6207766  
556450.359694 136472.880629 98170.0918246 9.60653778748e-11 -3.18323145621e-11 3572.56976667  
558015.377343 129290.226144 96788.7869069 -14075.9255256 2081.99659689 3689.6207766  
561327.247736 108757.759178 93357.8002134 -25145.5026106 3114.43976546 4250.10483526  
558061.011228 82468.5012113 91133.5191153 -24025.8643793 4658.84107153 6836.84778825  
574094.142031 73863.2352738 85078.0620603 -682.178583228 -1628.20423859 -19132.1823541  
584537.515417 103059.929954 90368.5189812 -745.470103977 -821.730583817 -17842.2504354  
582079.805379 123428.04079 93537.2381723 -437.289723334 -968.980614783 -17059.5162114  
579845.267414 130194.064452 94546.6248971 -3.76758180209e-10 -3.4879121813e-10 -16796.0517291  
582079.805379 123428.04079 93537.2381723 437.289723333 968.980614783 -17059.5162114  
584537.515417 103059.929954 90368.5189812 745.470103976 821.730583817 -17842.2504354  
574094.142031 73863.2352738 85078.0620603 682.178583227 1628.20423859 -19132.1823541  
532579.588991 66629.3519222 71237.2858428 -25445.3780049 699.941040875 -43782.606664  
537572.873975 93428.1158094 73878.0089207 -26475.9688861 695.079659173 -38326.20408  
535356.568371 114329.255431 78147.6101714 -14781.6585452 -367.074748707 -36365.9344542  
534264.247189 121741.206579 79914.7366138 7.38964445191e-11 -5.57520252187e-10 -35915.8652842  
535356.568371 114329.255431 78147.6101714 14781.6585452 367.074748708 -36365.9344542  
537572.873975 93428.1158094 73878.0089207 26475.9688861 -695.079659172 -38326.20408  
532579.588991 66629.3519222 71237.2858428 25445.3780049 -699.941040875 -43782.606664  
398926.421671 41263.0104881 24140.8511206 -53211.6710346 1499.73972548 -63735.1264649  
391475.592369 64527.0555759 27811.5209601 -51144.730616 -302.593678619 -57271.9310818  
394652.33715 87302.6390325 35905.4810822 -27131.2188794 -1175.83283664 -55437.5742193  
394962.462635 92974.0799954 38201.1857996 -4.54747350886e-11 -1.56433088705e-10 -54813.9666894  
394652.33715 87302.6390325 35905.4810822 27131.2188794 1175.83283664 -55437.5742193  
391475.592369 64527.0555759 27811.5209601 51144.730616 302.593678618 -57271.9310818  
398926.421671 41263.0104881 24140.8511206 53211.6710346 -1499.73972548 -63735.1264649  
193128.604644 52219.8934655 9409.40854186 -88731.1589038 -610.178192202 -148405.7496  
197082.814561 78772.8851943 23263.8015521 -75589.4627199 -2234.29535307 -146742.382561  
198002.095904 76505.9838616 25868.0565524 -37364.7947622 -1233.55521749 -143900.110074  
197176.219983 73011.5596312 25442.2211296 1.65300662047e-10 1.93949745153e-10 -142990.861325  
198002.095904 76505.9838616 25868.0565524 37364.7947622 1233.55521749 -143900.110074  
197082.814561 78772.8851943 23263.8015521 75589.4627199 2234.29535307 -146742.382561  
193128.604644 52219.8934655 9409.40854186 88731.1589038 610.178192202 -148405.7496  
281845.417731 81622.0612852 71994.5291295 121809.213623 12709.4374663 153570.772586  
421226.640904 49402.5760661 86588.8487827 53505.9427492 16248.986488 65486.7352065  
488102.529692 37730.9436389 80682.9305133 23224.2870226 18918.8122965 22534.991777  
502549.262307 29541.7039951 75400.4802379 -664.345735509 23148.3156673 -19237.7573713  
462189.527804 22868.1080092 62508.6308493 -25950.863919 24944.1299384 -60478.9318991  
351978.385642 12990.8370128 28285.9491604 -54523.7428395 23012.4097051 -104459.885984  
241164.812046 58292.0763185 25148.7207705 -112048.348713 15014.4000208 -207721.393123  
211453.832942 53067.6943731 43376.301468 19392.206935 677.291684087 -2836.86107979  
167827.393365 25851.3387185 25274.1809912 3047.58162155 220.471462406 2568.28367628  
138858.789128 11622.281959 16309.072352 -380.22811633 -156.017837403 1311.76564455  
130485.122356 7757.92546724 13408.3817422 86.6241610462 -250.378584652 581.675131716  
140345.740737 12462.8030703 17753.7299395 545.829906186 -193.223561876 -163.416836434  
171043.105323 27708.3240637 28912.0576887 -3164.5320786 -141.051312531 -833.154518824  
211153.58812 53518.2324694 46292.451584 -19706.1830205 -97.3379116548 5922.27239446  
219239.763179 79037.4250477 48442.8617469 17867.9384212 -761.003102405 -2978.82976417  
171208.945077 33831.4902201 23038.5302993 5206.95865715 -357.861514515 4870.53947908  
147530.95607 16956.5079044 16285.0137181 1221.78886589 -545.247581541 2367.93053987  
139700.640758 11833.672625 14133.7911997 48.8190310864 -530.199648711 556.323329631  
149048.496575 17932.751148 17708.0127556 -1147.00037634 -634.774018911 -1352.87798975  
174569.311296 36137.0020243 26678.0255902 -5356.09700649 -655.487490223 -3424.98828775  
219159.008131 80160.8547171 51719.8389695 -18172.5217925 -1147.32385281 5573.87281662  
223233.109859 91330.5496646 50681.2555383 9451.28907438 -361.123984362 -2823.9186492  
175339.78207 43833.8783569 23909.855899 3747.65895245 -269.006639292 5219.78252668  
151432.480915 21313.7660139 15874.060291 1311.22070388 -366.844710143 2822.62535988  
144435.597462 14921.0998599 13781.8521466 11.765863241 -379.416993868 510.017124166  
152997.563812 22442.6385625 17353.5462605 -1299.65956876 -415.328688568 -1922.37207511  
178845.048404 46514.0943004 27728.2535051 -3845.21467517 -412.399671486 -3896.06135376  
223294.792008 92844.1890924 54089.3574972 -9632.14408673 -505.815902837 5459.89874159  
224016.072025 94381.7766952 51135.1239126 6.06519279245e-11 -5.42286215932e-11 -2905.69801516  
176672.876169 47181.0961726 24312.7264464 -1.23520749185e-10 6.9206862463e-11 5358.49426722  
152844.010219 23373.0266768 15854.315091 -1.7763568394e-11 -2.53521648119e-11 2916.39820409  
145758.647662 16126.0941643 13548.1367211 -6.91215973347e-11 1.00044417195e-11 491.599503949  
154428.824439 24560.2456745 17356.7078616 1.07348796519e-10 2.62616595137e-11 -2041.02153089  
180196.980982 49920.7458666 28137.6978369 -4.33431068814e-11 -3.35660388373e-11 -4054.3916195  
224116.523869 96005.7394808 54563.9868902 -1.12549969344e-11 -2.43502995545e-11 5533.8770719  
223233.109859 91330.5496646 50681.2555383 -9451.28907438 361.123984362 -2823.9186492  
175339.78207 43833.8783569 23909.855899 -3747.65895245 269.006639292 5219.78252668  
151432.480915 21313.7660139 15874.060291 -1311.22070388 366.844710143 2822.62535988  
144435.597462 14921.0998599 13781.8521466 -11.7658632411 379.416993868 510.017124166  
152997.563812 22442.6385625 17353.5462605 1299.65956876 415.328688568 -1922.37207511  
178845.048404 46514.0943004 27728.2535051 3845.21467517 412.399671486 -3896.06135376  
223294.792008 92844.1890924 54089.3574972 9632.14408673 505.815902837 5459.89874159  
219239.763179 79037.4250477 48442.8617469 -17867.9384212 761.003102405 -2978.82976417  
171208.945077 33831.4902201 23038.5302993 -5206.95865715 357.861514515 4870.53947908  
147530.95607 16956.5079044 16285.0137181 -1221.78886589 545.247581541 2367.93053987  
139700.640758 11833.672625 14133.7911997 -48.8190310866 530.199648711 556.323329631  
149048.496575 17932.751148 17708.0127556 1147.00037634 634.774018911 -1352.87798975  
174569.311296 36137.0020243 26678.0255902 5356.09700649 655.487490223 -3424.98828775  
219159.008131 80160.8547171 51719.8389695 18172.5217925 1147.32385281 5573.87281662  
211453.832942 53067.6943731 43376.301468 -19392.206935 -677.291684087 -2836.86107979  
167827.393365 25851.3387185 25274.1809912 -3047.58162155 -220.471462405 2568.28367628  
138858.789128 11622.281959 16309.072352 380.22811633 156.017837403 1311.76564455  
130485.122356 7757.92546724 13408.3817422 -86.6241610463 250.378584652 581.675131716  
140345.740737 12462.8030703 17753.7299395 -545.829906186 193.223561876 -163.416836435  
171043.105323 27708.3240637 28912.0576887 3164.5320786 141.051312531 -833.154518824  
211153.58812 53518.2324694 46292.451584 19706.1830205 97.3379116548 5922.27239446  
194174.373247 35718.2495555 54223.7006431 20959.2293245 -10440.2912899 -17644.9987706  
145060.064418 11487.6405996 24419.3554744 -2929.57781197 -3923.22230538 3526.29488985  
125545.622386 4084.46992965 14772.257633 -2295.61425559 -2902.67190589 3090.66111112  
121065.474898 3268.43604599 12720.695816 137.131169078 -2403.13006672 533.600469362  
126643.563938 4581.86304516 15872.1322705 2616.93866394 -2892.00653396 -2105.8605806  
147943.738139 13036.1785136 28106.1369883 2863.56828654 -4015.64042988 -1466.12906373  
192752.144886 35745.2148975 57339.2987638 -21149.8894861 -11112.2088378 21327.3388613  
-168609.575937 -168690.550341 -302144.649884 22.4986393733 47298.6368057 43583.6870758  
-128496.805858 -128327.374249 -244175.154679 26.8534933763 42256.3294205 23457.5437745  
-95372.4142315 -95055.8712383 -196048.850668 22.1232039136 36477.1780395 10626.0271009  
-67250.2545396 -66832.5695388 -156989.80782 14.7566465355 30615.6699999 1037.36215269  
-49200.7588307 -49258.4322182 -115938.598454 -16.3772513529 20953.6495783 -5554.39420214  
-32835.8866549 -32827.5119463 -76651.1240979 3.27904655328 12574.8055348 -9334.07070191  
-16954.6410645 -16954.1758835 -39559.2785473 -0.346992543399 6206.02543914 -10206.5579173  
-4468.68235897 -4469.0230902 -10428.061275 0.0905418103469 1536.94519746 -8240.38810024  
3299.02734457 3297.69521114 7693.29002591 -0.318953703002 -1302.57194021 -4537.93426745  
5986.89687944 5990.49980812 13981.4358143 -0.504749347731 -2285.78639941 63.4751370001  
3481.30418809 3485.95992119 8138.56221589 -0.534989179462 -1352.15323633 4691.54467649  
-4158.2398177 -4156.10546899 -9695.44507892 -2.27132281084 1484.96582864 8571.90146697  
-16526.6062073 -16525.1555701 -38557.2456929 -3.533844891 6127.51699311 10575.090947  
-32302.2167894 -32295.358907 -75414.5938905 -6.78362339492 12446.5894248 9640.87171038  
-48528.4385109 -48606.8099089 -114343.019369 3.82669606047 20764.6011997 5969.60344353  
-66281.6684822 -65912.3761641 -155354.94897 -35.6833090021 30453.2509077 -717.297748571  
-94350.1862952 -94061.1666633 -194467.241991 -35.565226126 36502.475579 -10465.7749777  
-127713.550451 -127561.210416 -242999.83294 -30.2583174221 42186.5101967 -23424.7045704  
-167846.779482 -167973.629293 -301032.805417 -30.3386769752 47300.2639364 -43584.5904914  
-160848.630668 -161204.931084 -292824.588885 21.7999746125 27379.4017965 49166.6795159  
-119475.906001 -119566.788846 -234123.808596 34.7471051726 24819.077037 28741.9874853  
-86411.0825595 -86345.503597 -186948.15423 39.7899103848 21754.5952326 15781.2708421  
-61580.9309027 -61547.6217224 -147345.778463 8.23703445908 17784.0217794 6379.44380199  
-46811.6770483 -46800.7532491 -109262.058329 -0.675303416477 12044.5938999 -554.879205231  
-31169.3559934 -31172.6098151 -72739.3433903 1.68888606241 7206.26083497 -4727.24346124  
-16510.4165093 -16509.9306283 -38522.685585 -0.218467370366 3292.1178282 -6451.83023752  
-4970.91193452 -4971.19874621 -11599.7505529 0.0573547298067 494.183348294 -5607.81692782  
2174.28557984 2173.37504326 5070.29789767 -0.186497819383 -1170.15818158 -3173.34153319  
4635.8399004 4638.38831433 10825.4544807 -0.294399138587 -1740.43583353 82.3341605939  
2341.89769133 2345.18184412 5475.3751224 -0.312597031416 -1195.38988342 3356.23724336  
-4689.67557239 -4688.69345516 -10939.3026115 -1.36256860193 469.440668541 5957.07622527  
-16123.9335099 -16123.9042816 -37622.4140955 -2.14266574005 3257.23013637 6821.96553671  
-30666.8954632 -30672.6950925 -71575.4215117 -3.7842609114 7144.990075 5044.32672821  
-46181.6168478 -46186.0366697 -107832.677049 -5.0560049651 11975.344906 940.436436614  
-60814.1473153 -60823.2769552 -145722.367877 -20.9005887241 17665.7394928 -6037.16433557  
-85371.9130222 -85338.3464739 -185491.023762 -48.3132788943 21785.9030551 -15578.0626006  
-118707.517872 -118819.765497 -232989.805933 -37.2300277759 24783.6427417 -28649.5138077  
-160101.860786 -160508.641259 -291765.501908 -26.5760585076 27368.8993397 -49124.486504  
-157589.550016 -158056.566112 -288869.876905 11.7149478641 12758.7758945 51800.6409184  
-115556.995705 -115765.719626 -229934.318508 19.6587908735 11600.9864248 31113.1599215  
-82166.7062042 -82221.5611246 -183775.874748 25.7109596739 10361.7789873 18191.5854693  
-60593.973101 -60565.929838 -142751.210608 -6.56363863689 8093.53041332 8359.53375239  
-45745.9335144 -45739.0930871 -106717.710109 -0.889223774097 5653.84494094 1600.61134009  
-30315.8957027 -30319.1521466 -70747.944786 0.799722085474 3357.28777087 -2634.95515097  
-16133.5242256 -16133.0543738 -37643.3236871 -0.105680448256 1458.99229759 -4599.49193958  
-5038.8671247 -5039.11343368 -11758.1776542 0.0287418288303 98.0678399663 -4230.75809968  
1788.60610729 1787.91545285 4171.11206887 -0.0893528470623 -701.354065903 -2439.41224033  
4131.01741154 4132.99919509 9645.64657208 -0.140411082816 -972.259201847 93.5699440927  
1948.18063651 1950.73016966 4554.25326235 -0.149361924838 -712.13815286 2639.84000431  
-4774.55585913 -4774.07328057 -11139.0217428 -0.663322372434 87.8657247809 4590.03993975  
-15767.7430577 -15768.2712895 -36793.1612408 -1.04252882675 1445.71232675 4968.18005383  
-29833.0782136 -29839.0638015 -69630.4677915 -1.81898149487 3334.23269363 2950.28502753  
-45182.5807545 -45190.1826532 -105451.361423 -1.8580463849 5644.61974957 -1225.43900118  
-60003.64689 -60017.1063321 -141172.147302 1.7153907814 8039.1028611 -7996.1589317  
-81167.2467959 -81252.2681934 -182488.482576 -29.4561207302 10394.5649269 -17967.7198925  
-114817.458574 -115048.653723 -228860.791645 -20.8098688596 11590.1969035 -30988.8251492  
-156840.313863 -157360.135468 -287819.119641 -13.926687726 12752.6846374 -51737.4618778  
-157012.550652 -157509.331781 -288304.353763 3.00790503616e-11 -5.12159203936e-11 52507.9726444  
-114693.664848 -114933.179133 -229143.586414 -2.00324201671e-11 2.79669620795e-11 31787.5045112  
-81167.7178861 -81257.1722973 -183211.974313 1.44781964195e-11 -2.21689333557e-12 18880.3637196  
-60419.7438878 -60382.2772754 -141699.435999 -4.95603558193e-12 -5.34328137292e-12 8904.25879191  
-45508.8935925 -45502.1349473 -106164.889565 6.57252030578e-14 5.74118530494e-12 2216.79245226  
-30099.7763736 -30103.0359071 -70243.6766501 -7.37188088351e-13 -5.25801624462e-12 -2034.63429702  
-16016.3118083 -16015.8485723 -37369.8500995 1.1990408666e-13 -9.22284471017e-12 -4051.45675825  
-5033.27710405 -5033.50899549 -11745.0862143 6.18172180111e-13 1.79412040779e-12 -3808.40800681  
1708.8315196 1708.20813673 3985.19560283 -3.23518989376e-13 -1.41220368732e-13 -2209.38406394  
4018.2962312 4020.10066852 9382.03933053 4.1838754683e-13 -2.67164068646e-12 97.4095657199  
1865.58030022 1867.90046686 4360.75458931 -1.20459198172e-13 -3.96127575186e-12 2415.92933777  
-4775.50206496 -4775.153368 -11141.6758284 -2.84217094304e-14 -3.33955085807e-12 4171.35908667  
-15658.7105967 -15659.3812872 -36539.2270274 3.81916720471e-13 -6.71285249609e-12 4420.45754673  
-29629.2213765 -29635.2428381 -69154.9214171 -1.1315393067e-12 -8.32756086311e-12 2351.10920345  
-44963.9052432 -44971.509489 -104941.126387 1.34692257348e-12 7.81597009336e-12 -1836.13426596  
-59855.2269909 -59858.5113617 -140186.726107 9.53903622758e-13 2.87059265247e-12 -8544.03636698  
-80199.8386304 -80318.5875695 -181985.301026 -1.92290627865e-13 4.77484718431e-12 -18649.0458935  
-113968.267111 -114230.494751 -228097.284329 2.33502106539e-12 -1.81898940355e-12 -31655.2628937  
-156265.769229 -156815.998292 -287260.819736 -2.27640128969e-12 -1.45519152284e-11 -52439.3915583  
-157589.550016 -158056.566112 -288869.876905 -11.7149478641 -12758.7758945 51800.6409184  
-115556.995705 -115765.719626 -229934.318508 -19.6587908735 -11600.9864248 31113.1599215  
-82166.7062042 -82221.5611246 -183775.874748 -25.7109596739 -10361.7789873 18191.5854693  
-60593.973101 -60565.929838 -142751.210608 6.56363863688 -8093.53041332 8359.53375239  
-45745.9335144 -45739.0930871 -106717.710109 0.889223774097 -5653.84494094 1600.61134009  
-30315.8957027 -30319.1521466 -70747.944786 -0.799722085476 -3357.28777087 -2634.95515097  
-16133.5242256 -16133.0543738 -37643.3236871 0.105680448256 -1458.99229759 -4599.49193958  
-5038.8671247 -5039.11343368 -11758.1776542 -0.0287418288285 -98.0678399663 -4230.75809968  
1788.60610729 1787.91545285 4171.11206887 0.0893528470618 701.354065903 -2439.41224033  
4131.01741154 4132.99919509 9645.64657208 0.140411082817 972.259201847 93.5699440927  
1948.18063651 1950.73016966 4554.25326235 0.149361924838 712.13815286 2639.84000431  
-4774.55585913 -4774.07328057 -11139.0217428 0.663322372434 -87.8657247809 4590.03993975  
-15767.7430577 -15768.2712895 -36793.1612408 1.04252882675 -1445.71232675 4968.18005383  
-29833.0782136 -29839.0638015 -69630.4677915 1.81898149486 -3334.23269363 2950.28502753  
-45182.5807545 -45190.1826532 -105451.361423 1.8580463849 -5644.61974957 -1225.43900118  
-60003.64689 -60017.1063321 -141172.147302 -1.7153907814 -8039.1028611 -7996.1589317  
-81167.2467959 -81252.2681934 -182488.482576 29.4561207302 -10394.5649269 -17967.7198925  
-114817.458574 -115048.653723 -228860.791645 20.8098688596 -11590.1969035 -30988.8251492  
-156840.313863 -157360.135468 -287819.119641 13.926687726 -12752.6846374 -51737.4618778  
-160848.630668 -161204.931084 -292824.588885 -21.7999746124 -27379.4017965 49166.6795159  
-119475.906001 -119566.788846 -234123.808596 -34.7471051726 -24819.077037 28741.9874853  
-86411.0825595 -86345.503597 -186948.15423 -39.7899103848 -21754.5952326 15781.2708421  
-61580.9309027 -61547.6217224 -147345.778463 -8.23703445909 -17784.0217794 6379.44380199  
-46811.6770483 -46800.7532491 -109262.058329 0.675303416477 -12044.5938999 -554.879205231  
-31169.3559934 -31172.6098151 -72739.3433903 -1.68888606242 -7206.26083497 -4727.24346124  
-16510.4165093 -16509.9306283 -38522.685585 0.218467370366 -3292.1178282 -6451.83023752  
-4970.91193452 -4971.19874621 -11599.7505529 -0.0573547298046 -494.183348294 -5607.81692782  
2174.28557984 2173.37504326 5070.29789767 0.186497819383 1170.15818158 -3173.34153319  
4635.8399004 4638.38831433 10825.4544807 0.294399138588 1740.43583353 82.334160594  
2341.89769133 2345.18184412 5475.3751224 0.312597031416 1195.38988342 3356.23724336  
-4689.67557239 -4688.69345516 -10939.3026115 1.36256860193 -469.440668541 5957.07622527  
-16123.9335099 -16123.9042816 -37622.4140955 2.14266574005 -3257.23013637 6821.96553671  
-30666.8954632 -30672.6950925 -71575.4215117 3.7842609114 -7144.990075 5044.32672821  
-46181.6168478 -46186.0366697 -107832.677049 5.0560049651 -11975.344906 940.436436614  
-60814.1473153 -60823.2769552 -145722.367877 20.9005887241 -17665.7394928 -6037.16433557  
-85371.9130222 -85338.3464739 -185491.023762 48.3132788943 -21785.9030551 -15578.0626006  
-118707.517872 -118819.765497 -232989.805933 37.2300277759 -24783.6427417 -28649.5138077  
-160101.860786 -160508.641259 -291765.501908 26.5760585076 -27368.8993397 -49124.486504  
-168609.575937 -168690.550341 -302144.649884 -22.4986393732 -47298.6368057 43583.6870758  
-128496.805858 -128327.374249 -244175.154679 -26.8534933763 -42256.3294205 23457.5437745  
-95372.4142315 -95055.8712383 -196048.850668 -22.1232039136 -36477.1780395 10626.0271009  
-67250.2545396 -66832.5695388 -156989.80782 -14.7566465355 -30615.6699999 1037.36215269  
-49200.7588307 -49258.4322182 -115938.598454 16.3772513529 -20953.6495783 -5554.39420214  
-32835.8866549 -32827.5119463 -76651.1240979 -3.27904655328 -12574.8055348 -9334.07070191  
-16954.6410645 -16954.1758835 -39559.2785473 0.346992543399 -6206.02543914 -10206.5579173  
-4468.68235897 -4469.0230902 -10428.061275 -0.090541810342 -1536.94519746 -8240.38810024  
3299.02734457 3297.69521114 7693.29002591 0.318953703002 1302.57194021 -4537.93426745  
5986.89687944 5990.49980812 13981.4358143 0.504749347733 2285.78639941 63.4751370001  
3481.30418809 3485.95992119 8138.56221589 0.534989179461 1352.15323633 4691.54467649  
-4158.2398177 -4156.10546899 -9695.44507892 2.27132281084 -1484.96582864 8571.90146697  
-16526.6062073 -16525.1555701 -38557.2456929 3.533844891 -6127.51699311 10575.090947  
-32302.2167894 -32295.358907 -75414.5938905 6.78362339491 -12446.5894248 9640.87171038  
-48528.4385109 -48606.8099089 -114343.019369 -3.82669606047 -20764.6011997 5969.60344353  
-66281.6684822 -65912.3761641 -155354.94897 35.6833090021 -30453.2509077 -717.297748571  
-94350.1862952 -94061.1666633 -194467.241991 35.565226126 -36502.475579 -10465.7749777  
-127713.550451 -127561.210416 -242999.83294 30.2583174221 -42186.5101967 -23424.7045704  
-167846.779482 -167973.629293 -301032.805417 30.3386769752 -47300.2639364 -43584.5904914  
-232061.944909 -232041.960464 -396145.673361 33.0772503842 76496.4772756 30711.2501135  
-182878.593169 -182734.193676 -322642.219907 26.3095372675 67243.758084 11185.5801831  
-141246.723741 -141042.1509 -260773.790657 19.4299509098 56273.632385 -1151.95289413  
-104450.031594 -104231.53946 -205866.144343 20.9388784902 45154.0505534 -9937.0302558  
-69212.761808 -68698.0998712 -158971.657957 49.9793841825 36404.3752422 -17528.6031766  
-43808.256077 -43895.5207073 -102047.58895 1.71202465641 23109.4214873 -18890.2872717  
-21683.0893493 -21682.7764614 -50592.8321886 -0.573699817822 12185.5874577 -17584.6527654  
-4527.67068433 -4528.09489278 -10565.9789583 0.157877915239 3842.05647512 -13292.1090871  
6040.32851294 6038.18594139 14086.9579584 -0.576342003097 -1279.46783352 -7130.93915592  
9680.73271359 9686.3365358 22607.0557391 -0.917306197682 -3066.93516114 33.26551356  
6235.41220261 6242.67716973 14573.5116965 -0.972578719824 -1370.31972678 7232.172999  
-4269.14235527 -4264.63447465 -9946.30589356 -4.09255156482 3797.32714104 13625.5089279  
-21405.8772197 -21401.2720231 -49931.6961907 -6.26648406479 12157.7575842 17983.3956993  
-43463.7082841 -43552.889982 -101222.83968 -7.21579526374 23061.0586452 19178.5707054  
-68919.1060226 -68401.3724983 -158429.635296 -70.2966889305 36562.3050016 17995.1073386  
-104182.832809 -103998.940874 -205351.942931 -59.1633455622 45256.5784131 10224.3282456  
-141310.404274 -141130.777324 -260733.983109 -37.4086060984 56652.1825752 1387.85827129  
-182410.541227 -182283.426066 -321924.094075 -30.0928200413 67282.5648172 -11146.4730829  
-231424.373557 -231446.098758 -395216.985199 -44.0399848052 76568.9525855 -30707.8031227  
-325179.006711 -325164.690597 -535018.843447 23.4607720343 86693.2235922 65786.9447011  
-263522.588253 -263561.780777 -442669.927924 -3.23271024211 -50960.7862167 77407.4423382  
-263550.133487 -263673.892103 -443375.009282 3.01527226426 -28905.8129934 84558.6724313  
-264014.372466 -264142.953618 -444255.304376 0.225069900996 -13310.922767 87488.6630244  
-264647.903948 -264775.717312 -445269.336927 1.03739239421e-12 -9.54969436862e-12 88333.0873854  
-264014.372466 -264142.953618 -444255.304376 -0.225069900997 13310.922767 87488.6630244  
-263550.133487 -263673.892103 -443375.009282 -3.01527226427 28905.8129934 84558.6724313  
-263522.588253 -263561.780777 -442669.927924 3.23271024212 50960.7862167 77407.4423382  
-263105.405476 -263180.746552 -442093.575095 -7.29016728326 50915.7820034 -77467.6723789  
-263086.981442 -263248.592237 -442731.04412 0.581671898762 28866.2817444 -84589.0477627  
-263524.30915 -263691.333847 -443571.126819 -0.878950534948 13290.2450109 -87501.5959863  
-264149.215495 -264315.674891 -444572.344448 2.52953213931e-12 1.36424205266e-12 -88341.0975221  
-263524.30915 -263691.333847 -443571.126819 0.878950534951 -13290.2450109 -87501.5959863  
-263086.981442 -263248.592237 -442731.04412 -0.581671898755 -28866.2817444 -84589.0477627  
-263105.405476 -263180.746552 -442093.575095 7.29016728325 -50915.7820034 -77467.6723789  
-324597.397844 -324619.405636 -534201.42677 -30.4237374246 86648.4233294 -65832.6562549  
20215.2341326 -5022.0029341 8059.51780329 7891.56825575 289.97128995 -7285.9685229  
25340.8604591 -10895.9448043 8672.51399169 7633.67127101 445.891538236 -6309.02251121  
26844.5539065 -15998.7586976 8618.88431204 4084.89809552 281.290954322 -6195.96520379  
27069.7936425 -17787.2037848 8563.47256573 6.0026650317e-10 1.19177911984e-09 -6215.14578653  
26844.5539065 -15998.7586976 8618.88431204 -4084.89809552 -281.290954319 -6195.96520379  
25340.8604591 -10895.9448043 8672.51399169 -7633.67127101 -445.891538234 -6309.02251121  
20215.2341326 -5022.0029341 8059.51780329 -7891.56825575 -289.971289948 -7285.9685229  
48797.3027065 1831.57754481 4256.21101641 11443.6080502 -139.838011256 -8190.09601834  
56988.5447947 3492.33804548 4924.17498453 10193.2796379 -310.243521428 -7435.98917655  
59157.6310483 4761.73588888 4757.37801572 4948.4448889 -175.570270942 -7712.43866392  
59339.6727404 5366.70022697 4631.05397483 -1.40107658808e-09 -3.28952864947e-10 -7905.4319034  
59157.6310483 4761.73588888 4757.37801572 -4948.4448889 175.57027094 -7712.43866392  
56988.5447947 3492.33804548 4924.17498453 -10193.2796379 310.243521427 -7435.98917655  
48797.3027065 1831.57754481 4256.21101641 -11443.6080502 139.838011255 -8190.09601834  
80271.2265162 11807.3207767 6435.78159281 8734.89172936 18.0580120438 -375.387710782  
90418.6997104 21491.1052148 6212.42415705 5874.99479671 -646.41371856 -1150.32544238  
91249.1494294 29999.9085777 5446.60054604 1693.72570403 -448.875589986 -2248.2663727  
90490.4921341 33302.220574 5095.35332106 1.31649358082e-10 1.36873268275e-09 -2694.23477124  
91249.1494294 29999.9085777 5446.60054604 -1693.72570403 448.875589989 -2248.2663727  
90418.6997104 21491.1052148 6212.42415705 -5874.99479671 646.413718563 -1150.32544238  
80271.2265162 11807.3207767 6435.78159282 -8734.89172936 -18.058012041 -375.387710782  
90291.9188777 22584.2407994 7711.13202867 -2343.97084649 754.154468488 15330.0230951  
101043.807702 42165.3510338 7597.49452353 -8047.88073355 -167.168334072 11482.9822151  
96797.2005741 59894.236255 6688.86142967 -7250.97423664 -164.681612813 9123.64852927  
94018.0293284 67021.1821394 6482.45646164 1.02841113403e-09 -4.68915573038e-10 8482.47184156  
96797.2005741 59894.236255 6688.86142967 7250.97423664 164.681612813 9123.64852927  
101043.807702 42165.3510338 7597.49452353 8047.88073355 167.168334071 11482.9822151  
90291.9188777 22584.2407994 7711.13202867 2343.97084649 -754.154468488 15330.0230951  
66719.2557524 38976.9709717 18289.8628935 -22621.1094072 3765.34087594 32846.6317126  
66333.9449601 67657.4818753 12702.9557688 -32293.4819579 977.76094624 25321.8581399  
51504.1243784 94805.1113779 10206.746988 -21790.2101382 46.0309303131 23160.2227682  
46866.8390599 105802.099293 10326.6895385 -1.1078782336e-09 -6.25050233793e-10 22668.6476269  
51504.1243784 94805.1113779 10206.746988 21790.2101382 -46.030930314 23160.2227682  
66333.9449601 67657.4818753 12702.9557688 32293.4819579 -977.760946241 25321.8581399  
66719.2557524 38976.9709717 18289.8628935 22621.1094072 -3765.34087594 32846.6317126  
-16929.8821658 56991.3612853 17788.549721 -58912.6685199 4147.75916476 51804.0955144  
-52671.8775697 75063.0830849 -1312.27981244 -63778.9778728 928.269174439 35077.6572389  
-61532.5124863 108693.717366 4360.60873046 -35080.3631182 -174.911751113 33093.8928751  
-65724.9412168 117733.822191 5391.84270716 -2.27373675443e-12 -6.49833964417e-10 32627.4537711  
-61532.5124863 108693.717366 4360.60873046 35080.3631182 174.911751112 33093.8928751  
-52671.8775697 75063.0830849 -1312.27981244 63778.9778728 -928.269174441 35077.6572389  
-16929.8821658 56991.3612853 17788.549721 58912.6685199 -4147.75916476 51804.0955144  
-169755.250008 76129.9228463 -19336.0765768 -92181.3964146 14892.4198437 106614.533595  
-160462.898956 135693.200694 22991.7718308 -84061.1082939 -253.322820909 104256.111328  
-168972.195566 147805.838979 24745.2966403 -40300.8089342 1529.19969115 103106.768539  
-173810.051438 147811.210994 24680.7865142 -1.05910658021e-09 4.06089384342e-10 103281.611218  
-168972.195566 147805.838979 24745.2966403 40300.8089342 -1529.19969114 103106.768539  
-160462.898956 135693.200694 22991.7718308 84061.1082939 253.322820909 104256.111328  
-169755.250008 76129.9228463 -19336.0765768 92181.3964146 -14892.4198437 106614.533595  
-456480.393925 125694.813937 -333811.998846 -86270.5735157 -64585.139462 97121.2765741  
-582026.73694 -74438.8684655 -469113.604885 -76330.1909278 8159.97518357 97029.747241  
-608248.232597 -126359.272727 -483318.463697 -36174.192446 2326.9576931 96479.5477365  
-619138.609186 -145720.876048 -492712.858185 1.0786607163e-09 -2.61024979409e-10 96812.7221624  
-608248.232597 -126359.272727 -483318.463697 36174.192446 -2326.9576931 96479.5477365  
-582026.73694 -74438.8684655 -469113.604885 76330.1909278 -8159.97518357 97029.747241  
-456480.393925 125694.813937 -333811.998846 86270.5735157 64585.139462 97121.2765741  
-585239.392575 143007.310885 -368660.932699 -40868.5724182 -54150.6248273 32628.4898243  
-657459.050398 3396.21827158 -434663.98432 -40553.5759602 6650.74683663 22893.8822198  
-684055.817146 -70695.6466763 -454079.332764 -21473.4141888 3569.19499395 22711.7306346  
-695699.225354 -99630.2212529 -465210.521739 -2.12139639189e-10 7.74889485911e-10 22680.4500513  
-684055.817146 -70695.6466763 -454079.332764 21473.4141888 -3569.19499395 22711.7306346  
-657459.050398 3396.21827158 -434663.98432 40553.5759602 -6650.74683663 22893.8822198  
-585239.392575 143007.310885 -368660.932699 40868.5724182 54150.6248273 32628.4898243  
-615342.949701 141148.608137 -382816.538195 0.671814270032 -55239.0715285 5341.38817461  
-709837.215464 -3940.00205835 -457576.794334 -146.70861012 7444.25556799 4951.82697604  
-723605.495908 -65943.096142 -466859.979504 -67.0107219081 3825.82451254 4522.56109338  
-734447.804547 -96754.9717528 -477575.887546 -3.37536221195e-10 1.20962795336e-10 4409.79731059  
-723605.495908 -65943.096142 -466859.979504 67.0107219073 -3825.82451254 4522.56109338  
-709837.215464 -3940.00205834 -457576.794334 146.70861012 -7444.25556799 4951.82697604  
-615342.949701 141148.608137 -382816.538195 -0.671814270605 55239.0715285 5341.38817461  
-583900.197346 144994.086541 -365730.833908 40580.2386293 -56436.1420503 -21360.6806174  
-657440.293838 3426.44742225 -434944.861179 40268.7339441 5149.9182802 -12752.5246572  
-683393.425786 -70209.1036891 -453951.261 21431.0702265 2850.36902009 -13217.5838209  
-694969.196631 -99243.8958283 -465123.253054 6.38465280645e-10 -5.62977220397e-10 -13387.1861806  
-683393.425786 -70209.1036891 -453951.261 -21431.0702265 -2850.36902009 -13217.5838209  
-657440.293838 3426.44742225 -434944.861179 -40268.7339441 -5149.9182802 -12752.5246572  
-583900.197346 144994.086541 -365730.833908 -40580.2386293 56436.1420503 -21360.6806174  
-462064.176689 127805.980739 -326431.481195 85506.1589157 -67754.9135883 -88057.5259466  
-587776.088831 -74175.7501697 -465298.242242 76688.386471 6087.50779243 -89766.3197934  
-614066.446085 -127161.982053 -479457.168443 36306.180242 1354.91979997 -89440.721343  
-624917.042543 -146670.036828 -488927.881048 -1.01408659248e-10 4.97948349221e-10 -89860.9301475  
-614066.446085 -127161.982053 -479457.168443 -36306.180242 -1354.91979997 -89440.721343  
-587776.088831 -74175.7501697 -465298.242242 -76688.386471 -6087.50779243 -89766.3197934  
-462064.176689 127805.980739 -326431.481195 -85506.1589157 67754.9135883 -88057.5259466  
-171108.714644 74885.7107183 -10877.9213436 96225.5353141 12785.5055628 -97115.3161986  
-156736.354368 142048.923733 36003.2929921 85113.9077962 -2126.63535635 -95956.0540961  
-165568.121903 153902.009332 37142.6972039 40656.9105821 718.320258379 -94811.6410811  
-170483.868981 153807.711629 37109.9723694 -1.02318153949e-11 -2.36468622461e-10 -94982.196762  
-165568.121903 153902.009332 37142.6972039 -40656.9105821 -718.32025838 -94811.6410811  
-156736.354368 142048.923733 36003.2929921 -85113.9077962 2126.63535635 -95956.0540961  
-171108.714644 74885.7107183 -10877.9213436 -96225.5353141 -12785.5055628 -97115.3161986  
-3312.07786965 58716.480618 20143.8371879 60211.5390351 3241.33407978 -47346.0447372  
-43326.4447376 78157.9564538 318.780873101 64881.7683522 118.462242972 -31461.4796177  
-53019.612858 112453.608676 5704.12956864 35535.0159004 -646.02321581 -29531.2221422  
-57507.372929 121558.050531 6561.90769473 -2.21007212531e-10 7.88986653788e-11 -29023.394587  
-53019.612858 112453.608676 5704.12956864 -35535.0159004 646.023215811 -29531.2221422  
-43326.4447376 78157.9564538 318.780873102 -64881.7683522 -118.462242972 -31461.4796177  
-3312.07786966 58716.480618 20143.8371879 -60211.5390351 -3241.33407978 -47346.0447372  
73590.3161979 41693.9468602 22393.469094 22359.7236149 3394.3101242 -33173.2747641  
71708.1372423 68902.8435213 14978.7458162 32421.0120458 644.491807474 -25134.7849415  
55870.6372556 96564.0048954 11935.471466 22039.9085096 -216.716823108 -22956.743835  
51023.7337255 107924.760765 11942.2170834 5.25005816598e-10 -5.46947376279e-10 -22443.3884655  
55870.6372556 96564.0048954 11935.471466 -22039.9085096 216.716823109 -22956.743835  
71708.1372423 68902.8435213 14978.7458162 -32421.0120458 -644.491807476 -25134.7849415  
73590.3161979 41693.9468602 22393.469094 -22359.7236149 -3394.3101242 -33173.2747641  
91475.4064076 23044.0193406 9065.84787829 1912.25090637 503.366023644 -14531.2729086  
101811.049555 41833.9057132 8103.67089011 7642.88144201 -297.8962002 -10911.857435  
97134.3989196 59416.9478653 6774.26600069 7101.15421782 -226.80503966 -8650.04963809  
94259.5031232 66602.2074161 6522.55176076 5.53200152353e-10 -3.07025516122e-11 -8027.0633818  
97134.3989196 59416.9478653 6774.26600069 -7101.15421782 226.805039659 -8650.04963809  
101811.049555 41833.9057132 8103.67089011 -7642.88144201 297.8962002 -10911.857435  
91475.4064076 23044.0193406 9065.84787829 -1912.25090637 -503.366023646 -14531.2729086  
79558.4294447 11505.1387348 6438.68558977 -8955.52649307 -57.299538766 829.815648613  
89839.0459997 21082.5287139 6057.46454457 -6109.73873844 -654.186928278 1448.85398264  
90773.0218881 29565.7272208 5268.8710251 -1814.07934923 -428.991383916 2466.30976304  
90032.4322704 32864.1896817 4917.4570876 -7.83529685577e-10 7.28164195607e-11 2887.15111839  
90773.0218881 29565.7272208 5268.8710251 1814.07934923 428.991383916 2466.30976304  
89839.0459997 21082.5287139 6057.46454458 6109.73873844 654.186928278 1448.85398264  
79558.4294447 11505.1387348 6438.68558977 8955.52649307 57.2995387668 829.815648614  
48132.7301419 1419.57225023 3544.19701333 -11483.0697081 -253.224390438 8418.57886434  
56349.7269965 3041.41702229 4142.33366545 -10263.0559674 -354.210123502 7624.67294888  
58644.7941783 4297.31124548 3983.61728705 -4999.68986486 -185.445372507 7890.52473354  
58865.8475387 4882.01495919 3853.80975688 1.16824594443e-09 3.25371729559e-10 8078.70132668  
58644.7941783 4297.31124548 3983.61728705 4999.68986487 185.445372507 7890.52473354  
56349.7269965 3041.41702229 4142.33366545 10263.0559674 354.210123502 7624.67294888  
48132.7301419 1419.57225023 3544.19701333 11483.0697081 253.224390438 8418.57886434  
20160.7376056 -5137.11857097 7802.32354841 -7889.1741621 278.329044692 7282.84472352  
25259.0315658 -11001.9457362 8367.87627651 -7643.14472816 441.234574946 6315.17415502  
26811.3762172 -16097.0196092 8305.36002968 -4099.22886557 279.848824649 6213.90623494  
27060.1798776 -17885.3092347 8249.74434673 7.81710696174e-10 -1.5819523469e-10 6236.41098177  
26811.3762172 -16097.0196092 8305.36002968 4099.22886558 -279.848824649 6213.90623494  
25259.0315658 -11001.9457361 8367.87627651 7643.14472816 -441.234574946 6315.17415502  
20160.7376056 -5137.11857097 7802.32354841 7889.17416211 -278.329044692 7282.84472352  
17801.4600852 -1453.65496797 9377.48812082 7407.99698654 -61.2533452413 -13437.2109371  
35501.2388317 -1597.34787705 2530.97904679 10886.8947583 -2310.68109932 -16450.16246  
48399.8668903 -763.797084415 2578.14012358 8638.7267184 -4462.34102061 -6575.44061354  
30229.9516259 -2645.54227779 -3163.84092467 -353.069607343 -7199.81969821 15455.3831373  
-23345.7851223 -5194.30907672 7724.24785046 -15272.4038537 -6991.05068887 38293.3591486  
-152926.073549 -27037.6968712 -16264.0074162 -50251.0838836 -13957.0447464 71838.9313071  
-175519.033295 61346.2942414 49486.2532449 -125983.089779 21486.105303 256497.726438  
-802576.699225 -226178.324009 -1048260.65681 -121653.863467 -90415.6772455 242609.16166  
-800247.328854 -116282.633842 -938888.125557 -35249.5091606 -70972.2399356 51758.1743571  
-846560.778039 -134343.441954 -971985.310961 45.4582147435 -76063.2237312 5195.86391105  
-795297.541851 -113173.68757 -937757.649281 35383.5343444 -72507.8158014 -39457.2363844  
-806251.498627 -220058.43273 -1031009.58254 121258.810773 -96150.7506725 -234962.336974  
-160741.783317 77073.285833 94403.2642703 132006.079107 14295.9769718 -242616.157804  
-135417.179845 -16598.5578214 -5061.30374158 50587.3278392 -17031.4055734 -67441.1828031  
-15109.8635285 -1342.21674661 12047.4154306 14444.2079839 -6498.74983615 -37690.6731803  
32052.4700682 -2480.60961815 -2053.42355972 -93.9667074723 -6933.34567189 -13535.6251716  
48168.5602526 -866.16258812 2571.05389672 -8756.34119037 -4576.38890971 7031.64105052  
35227.7686666 -1835.48072076 1997.8009271 -10886.0489588 -2520.18529009 16744.4703795  
17913.503933 -1529.47320716 9181.02578056 -7393.62270295 -123.6704509 13501.851845  
9159.10403701 -1604.14087101 11536.8022269 3865.92149946 2282.42290567 -8016.00082833  
8295.13995411 -9710.49002734 9602.34212276 -3891.33471445 -1286.13695162 -3823.99645597  
10418.072762 -24381.0747997 10882.6845702 -3895.12425383 -800.598680627 -2684.7903786  
9778.27855113 -37701.1071699 10405.513541 -2209.90277247 -297.435882893 -2240.29155136  
9314.03653631 -42488.1371419 10113.6468135 -7.97172106104e-10 1.43086253956e-09 -2130.96858677  
9778.27855113 -37701.1071699 10405.513541 2209.90277247 297.435882896 -2240.29155136  
10418.072762 -24381.0747997 10882.6845702 3895.12425383 800.59868063 -2684.7903786  
8295.13995411 -9710.49002734 9602.34212276 3891.33471445 1286.13695162 -3823.99645597  
8461.63670937 -9649.17311754 9822.67728086 -3882.03290449 1268.12147253 3870.05229623  
10552.9776719 -24297.528459 11048.0242249 -3892.71313809 777.638395465 2741.12113746  
9949.19672624 -37548.2352471 10578.2777578 -2213.60728962 280.030148818 2307.14110782  
9502.30482368 -42308.8738337 10292.1945327 -2.24736140808e-09 -5.06588548888e-10 2202.05735023  
9949.19672625 -37548.2352471 10578.2777578 2213.60728961 -280.030148819 2307.14110782  
10552.9776719 -24297.528459 11048.0242249 3892.71313808 -777.638395465 2741.12113746  
8461.63670937 -9649.17311754 9822.67728086 3882.03290448 -1268.12147253 3870.05229623  
9430.88359155 -1490.57835186 11863.882293 -3863.30617612 2316.51992119 8150.82559903  
437.948787838 -14758.2460231 -258345.518048 1234.55393431 -30143.1839327 -28587.4938985  
-9407.89344543 -54183.7652402 -271165.823631 395.499769865 -24349.2692422 -31187.939428  
-14228.1102462 -70052.7039054 -277765.703137 524.621476349 -11604.7396625 -32752.218769  
-15005.6487104 -73887.1985795 -279163.990003 1.69393388205e-11 -1.01181285572e-11 -33153.6992212  
-14228.1102462 -70052.7039054 -277765.703137 -524.62147635 11604.7396625 -32752.218769  
-9407.89344543 -54183.7652402 -271165.823631 -395.499769865 24349.2692422 -31187.939428  
437.948787838 -14758.2460231 -258345.518048 -1234.55393431 30143.1839327 -28587.4938985  
-16940.9052609 -21565.422335 -274544.430206 -1980.43372456 -9871.55720364 -2974.86402239  
-11060.6756672 -25069.2872083 -267118.154986 -246.249310405 -10943.2713466 -3818.52860087  
-11903.8598152 -37700.1846708 -268451.980615 -94.510244217 -6435.39585132 -4364.13509191  
-12573.4293913 -42122.0114214 -269090.161518 3.63797880709e-12 -9.43600753089e-12 -4559.59767403  
-11903.8598152 -37700.1846708 -268451.980615 94.510244217 6435.39585132 -4364.13509191  
-11060.6756672 -25069.2872083 -267118.154986 246.249310405 10943.2713466 -3818.52860087  
-16940.9052609 -21565.422335 -274544.430206 1980.43372456 9871.55720364 -2974.86402239  
-8180.08371427 -9461.63742463 -254973.400332 -1858.67874078 1685.56453158 -3573.43850065  
-4861.06525713 -12216.437734 -256810.422364 -760.786166845 142.450418952 -3422.81245212  
-3058.37695211 -16854.7663101 -255528.656184 -212.26574553 -490.587528546 -3354.76308421  
-2813.684851 -19504.6989749 -255387.452113 -1.87583282241e-12 -5.43991518498e-11 -3371.46792193  
-3058.37695211 -16854.7663101 -255528.656184 212.26574553 490.587528546 -3354.76308421  
-4861.06525713 -12216.437734 -256810.422364 760.786166845 -142.450418952 -3422.81245212  
-8180.08371427 -9461.63742463 -254973.400332 1858.67874078 -1685.56453158 -3573.43850065  
-5086.45354714 -6444.61596023 -239182.344132 -1156.24216808 7630.14808285 -6604.84498947  
-4170.38019116 -9262.22345956 -243708.457641 -602.181679944 7374.49521854 -5118.61683199  
-2996.23624754 -12017.6775115 -244618.363341 -240.676498004 3875.87670551 -4603.88812527  
-2543.1642158 -13108.3156541 -244549.653664 8.01492205937e-12 1.70530256582e-11 -4464.91143169  
-2996.23624754 -12017.6775115 -244618.363341 240.676498004 -3875.87670551 -4603.88812527  
-4170.38019116 -9262.22345956 -243708.457641 602.181679945 -7374.49521854 -5118.61683199  
-5086.45354714 -6444.61596023 -239182.344132 1156.24216808 -7630.14808285 -6604.84498947  
-970.416197521 -3811.42532368 -214560.128385 -656.978724332 11560.0988683 -10326.7144155  
-1043.2729706 -6567.30014586 -219034.144064 -360.463251144 11760.4899933 -8181.58261737  
-773.594476073 -8747.18728123 -221080.875589 -183.179365204 6599.22028944 -7228.2414655  
-605.992505027 -9510.99635775 -221613.438127 6.56541487842e-11 -4.26894075645e-11 -6979.08605357  
-773.594476073 -8747.18728123 -221080.875589 183.179365204 -6599.22028944 -7228.2414655  
-1043.2729706 -6567.30014586 -219034.144064 360.463251144 -11760.4899933 -8181.58261737  
-970.41619752 -3811.42532368 -214560.128385 656.978724333 -11560.0988683 -10326.7144155  
4021.42240777 -887.857247765 -179965.071903 -271.440843608 14398.4823721 -13858.781283  
3366.37924443 -3240.4626693 -183789.642368 -224.73817566 14625.6238669 -11104.6252174  
3080.3701361 -4895.39976148 -186247.988024 -141.915390628 8239.25494061 -9852.29405435  
3049.18291822 -5391.35423903 -187034.128977 6.18882722847e-12 -7.78186404204e-11 -9494.89535171  
3080.3701361 -4895.39976148 -186247.988024 141.915390627 -8239.25494061 -9852.29405435  
3366.37924443 -3240.4626693 -183789.642368 224.73817566 -14625.6238669 -11104.6252174  
4021.42240777 -887.857247765 -179965.071903 271.440843608 -14398.4823721 -13858.781283  
10814.34 3219.43987863 -136070.882056 25.6230170655 16286.0430919 -16944.9958136  
9596.33460743 1673.54812253 -139577.317295 -210.787501519 16466.4934914 -13607.4621191  
9182.96841633 1241.10822897 -142087.210248 -178.240492279 9244.09083431 -12087.731088  
9094.90453552 1164.95997937 -142981.10117 1.08173026092e-10 -3.97903932026e-12 -11649.8088146  
9182.96841633 1241.10822897 -142087.210248 178.240492279 -9244.09083431 -12087.731088  
9596.33460743 1673.54812253 -139577.317295 210.78750152 -16466.4934914 -13607.4621191  
10814.34 3219.43987863 -136070.882056 -25.6230170653 -16286.0430919 -16944.9958136  
18741.456341 8304.98652723 -85568.0990349 -11.5266993019 17017.4064204 -20553.4160803  
17219.9226824 8976.75984783 -88099.7264136 -559.399632907 17294.9190932 -16357.5646082  
16906.6846928 10411.1716899 -90807.4981683 -441.060974273 9776.17449359 -14670.4247714  
16822.5782317 10958.3576519 -91889.4732857 -4.09272615798e-11 -2.33455921261e-10 -14211.8014486  
16906.6846928 10411.1716899 -90807.4981683 441.060974273 -9776.17449359 -14670.4247714  
17219.9226824 8976.75984783 -88099.7264136 559.399632907 -17294.9190932 -16357.5646082  
18741.456341 8304.98652723 -85568.0990349 11.5266993016 -17017.4064204 -20553.4160803  
18110.1075894 8129.80433095 -18430.7057167 692.379524148 14413.5805887 -24511.1104964  
17556.483551 11399.0371421 -21616.2296977 214.040041193 14945.9171902 -21572.480738  
17474.8598709 15141.024055 -24248.4607705 -21.4326822752 8516.42279381 -20161.1453876  
17437.4564622 16525.3589891 -25194.2161314 -2.45563569479e-11 3.18323145621e-10 -19724.3402383  
17474.8598709 15141.024055 -24248.4607705 21.4326822755 -8516.42279381 -20161.1453876  
17556.483551 11399.0371421 -21616.2296977 -214.040041193 -14945.9171902 -21572.480738  
18110.1075894 8129.80433095 -18430.7057167 -692.379524148 -14413.5805887 -24511.1104964  
21061.5118 9948.97048165 48811.9701049 413.936177566 10449.3576023 -21664.2255286  
20123.4296754 12625.895555 46598.1505798 -54.4680941004 10676.2884023 -19144.2841136  
19654.9997973 16311.6535236 43837.0422715 -203.739616274 6050.47154493 -18115.3112972  
19557.595718 17941.6016612 42726.8878814 -2.96040525427e-10 -2.61906052401e-10 -17864.0166435  
19654.9997973 16311.6535236 43837.0422715 203.739616274 -6050.47154493 -18115.3112972  
20123.4296754 12625.895555 46598.1505798 54.4680941003 -10676.2884023 -19144.2841136  
21061.5118 9948.97048165 48811.9701049 -413.936177565 -10449.3576023 -21664.2255286  
22453.2466181 11617.1585067 107006.071754 -48.3300159796 6537.04336597 -17081.6875133  
22146.2970747 15318.2619663 103865.16632 -502.711171765 6323.38366081 -15721.3641615  
21906.4169612 19954.319935 100941.691417 -489.719481399 3466.70560395 -15191.0712374  
21790.9353673 21922.0576778 100014.17091 1.97815097636e-11 -6.8013150667e-11 -15118.6590891  
21906.4169612 19954.319935 100941.691417 489.719481399 -3466.70560395 -15191.0712374  
22146.2970747 15318.2619663 103865.16632 502.711171765 -6323.38366081 -15721.3641615  
22453.2466181 11617.1585067 107006.071754 48.3300159797 -6537.04336597 -17081.6875133  
25288.34401 14885.8554945 143831.861572 -418.627527805 2232.76598482 -10010.2193761  
23958.2440709 19170.8146798 143718.186838 -1021.51379393 2042.06019924 -10421.902757  
22728.0402549 24181.4300583 143383.473333 -794.738118712 1085.33791671 -10800.3538754  
22514.0079059 26451.3471839 142933.717261 1.58706825459e-10 1.99975147552e-10 -10810.0718857  
22728.0402549 24181.4300583 143383.473333 794.738118713 -1085.33791671 -10800.3538754  
23958.2440709 19170.8146798 143718.186838 1021.51379393 -2042.06019924 -10421.902757  
25288.34401 14885.8554945 143831.861572 418.627527805 -2232.76598482 -10010.2193761  
30266.2678608 19094.9590843 159247.543026 -710.169321128 -1659.01076882 -3516.4329482  
29956.2105359 25504.9095469 159779.813472 -1252.48879515 -1715.34940534 -4321.44662564  
29283.4622307 31242.8168242 160075.333539 -852.342488315 -955.691520997 -4746.49171812  
29070.7060167 33509.2312154 160186.761732 2.22826201934e-11 -6.44035935693e-11 -4897.77458203  
29283.4622307 31242.8168242 160075.333539 852.342488315 955.691520997 -4746.49171812  
29956.2105359 25504.9095469 159779.813472 1252.48879515 1715.34940534 -4321.44662564  
30266.2678608 19094.9590843 159247.543026 710.169321128 1659.01076882 -3516.4329482  
29534.6131595 18730.3788667 160685.776378 -722.831756228 -5209.43613566 233.275126847  
29620.8146794 25182.2448131 161994.629931 -1187.71820044 -4755.70320959 -784.809990213  
29213.1527793 30558.9677531 162891.171249 -782.331838035 -2422.40347 -1104.4467211  
29109.4294795 32621.8294719 163255.136589 -3.61069396604e-10 1.23179688671e-10 -1162.18775918  
29213.1527793 30558.9677531 162891.171249 782.331838035 2422.40347 -1104.4467211  
29620.8146794 25182.2448131 161994.629931 1187.71820044 4755.70320959 -784.809990213  
29534.6131595 18730.3788667 160685.776378 722.831756227 5209.43613566 233.275126846  
25235.0239009 14617.636445 149450.886424 -385.384461352 -8272.04447832 3848.26415165  
25523.9876708 19194.2859379 151186.979255 -747.32094256 -7352.35070469 2626.41844542  
25076.7224542 22733.3535296 152139.796647 -506.726889981 -3659.70045205 2433.56961205  
24964.0218065 24140.9006349 152535.270941 1.95541360881e-10 2.50679477176e-11 2453.97023031  
25076.7224542 22733.3535296 152139.796647 506.726889981 3659.70045205 2433.56961205  
25523.9876708 19194.2859379 151186.979255 747.320942561 7352.35070469 2626.41844542  
25235.0239009 14617.636445 149450.886424 385.384461352 8272.04447832 3848.26415165  
17224.5540025 6807.71961838 129143.584003 127.554692307 -10408.6041152 8866.35794116  
17696.4453166 7720.10756351 130389.682449 -75.664843763 -9293.3046376 7135.79344854  
17123.5536088 8179.69264757 130862.904119 -96.8538742859 -4593.71762912 6979.08055271  
16965.3320762 8490.26684723 131074.067606 -6.63021637592e-10 -5.80939740757e-11 7056.06972778  
17123.5536088 8179.69264757 130862.904119 96.8538742846 4593.71762912 6979.08055271  
17696.4453166 7720.10756351 130389.682449 75.6648437618 9293.3046376 7135.79344854  
17224.5540025 6807.71961838 129143.584003 -127.554692308 10408.6041152 8866.35794116  
9995.18513889 515.312167182 93790.542476 475.287784402 -10251.3984034 11501.7645644  
10431.6288352 -2974.8909364 95305.6412169 619.717898241 -9134.50476406 9828.9591937  
9932.58659344 -6430.34435224 96008.5790217 395.80878615 -4494.40940153 9816.7833857  
9711.31112031 -7665.02066737 96237.3682537 9.53605194809e-10 8.10587152955e-11 9973.00607881  
9932.58659344 -6430.34435224 96008.5790217 -395.808786148 4494.40940153 9816.7833857  
10431.6288352 -2974.8909364 95305.6412169 -619.717898239 9134.50476406 9828.9591937  
9995.18513889 515.312167182 93790.542476 -475.2877844 10251.3984034 11501.7645644  
4490.60385343 -5157.11287608 53477.0029192 1011.68554094 -7999.54187897 12005.3511676  
5495.0929521 -12228.0829222 55321.3667478 1538.85863595 -6999.23904536 10716.3277238  
5263.74818502 -19185.6486144 55932.4695508 1036.2270508 -3389.13245532 10842.9401038  
5064.0579812 -21830.574575 56044.1537631 -4.09727363149e-10 1.51544554683e-10 11020.8156038  
5263.74818502 -19185.6486144 55932.4695508 -1036.2270508 3389.13245532 10842.9401038  
5495.0929521 -12228.0829222 55321.3667478 -1538.85863595 6999.23904536 10716.3277238  
4490.60385343 -5157.11287608 53477.0029192 -1011.68554094 7999.54187897 12005.3511676  
6212.47575283 -8351.643961 21971.6327792 2011.86851902 -4235.71017851 7834.37352255  
7466.20869285 -19459.9433583 23687.1030899 2617.65640157 -3570.41185249 7152.39795419  
7258.78438543 -29816.138808 23918.8795484 1652.71494883 -1709.73729662 7331.0897779  
7025.92331234 -33706.5662527 23868.6922324 1.89675120055e-09 -2.86945578409e-10 7459.59637047  
7258.78438543 -29816.138808 23918.8795484 -1652.71494883 1709.73729662 7331.0897779  
7466.20869285 -19459.9433583 23687.1030899 -2617.65640157 3570.41185249 7152.39795419  
6212.47575283 -8351.643961 21971.6327792 -2011.86851902 4235.71017851 7834.37352255  
7267.89272136 -1757.40313548 24760.1112113 -691.708958033 5265.34774365 13628.5720985  
4800.67747616 -761.834953656 56242.3324229 1844.73218561 9074.32643824 20612.1974573  
9846.86574372 2325.62536194 95346.4427969 4018.97419144 11377.2456713 21771.0139082  
17064.5561301 6409.3056906 125222.820187 5741.72585427 11355.920217 18389.8322117  
23430.6709519 9894.36652448 143372.47264 7419.16205863 9080.91813561 11406.6115551  
27191.3507964 12069.8315369 153928.611428 8652.46757846 4981.91096388 4660.74853359  
27653.3809759 12388.7709905 152745.068669 9093.58619022 52.7867404545 -2606.82860714  
22189.9929206 9850.98954458 137894.947922 8970.29216142 -4637.77340258 -12134.6971619  
18516.1873204 7345.03746041 101695.775443 8589.06001306 -8724.72291191 -23016.0461501  
17982.814849 6281.15423057 41115.9241406 7245.27964589 -11858.734055 -30816.557021  
14828.8178742 2710.23144102 -24120.8652742 5334.76897459 -14988.8759034 -32617.3721114  
16536.7107905 4184.2800645 -87989.703795 3844.77641311 -17844.6384635 -33265.2958577  
10899.9807157 3857.83271964 -132754.955478 948.077612421 -17363.6468214 -29394.7408043  
6072.55820275 3550.92510273 -171017.731221 -364.736079826 -15000.4544606 -24401.962039  
2554.82186896 3575.1133905 -200515.676378 -1203.09249149 -11692.3389402 -18258.6551236  
-180.082347063 3591.74776787 -219918.369863 -1279.33887175 -7774.03059801 -11623.0242693  
-517.328424962 5034.98177182 -228824.397269 -574.852311436 -2627.66543991 -5777.25550766  
-16145.0514719 -10769.1170131 -254223.629835 1791.89169185 2699.91629993 857.012024638  
3815.99001671 5231.84841536 -264518.497295 -7144.5426562 35348.4355684 -19462.1154444  
5909.69009797 -8541.11131501 21406.4060113 2012.64489522 4249.11045554 -7747.69491792  
4822.73122989 -4971.21477791 53561.6453212 1190.23050433 8063.11940846 -11114.2247507  
10026.5292542 714.61599761 95440.3831977 670.705420533 10413.5671358 -10342.0772689  
17666.6757894 7664.06596807 130400.797885 263.688901542 10451.7055868 -7288.20837873  
26546.4833404 15526.2184271 151601.804 -219.985089483 8360.36439522 -2720.83181782  
30799.6574711 19370.2967095 162880.727096 -572.533060301 5247.33894192 1438.00329061  
30673.2573331 19399.8431973 160967.823932 -728.373037238 1563.45903893 6808.76428937  
26328.7054694 15533.714332 145129.394114 -574.21150706 -2413.06468701 13714.0292528  
22131.9874658 11629.9439403 108565.621269 -273.317799681 -6871.01481923 20352.3624558  
19849.3008655 9751.61101927 48867.3974769 -40.6568898037 -10790.9009909 23014.4052291  
15047.8515315 7377.62661625 -21308.566525 191.822270721 -14898.7233882 24619.6894125  
13742.8194576 6389.14867973 -88151.5107563 -525.692312726 -17278.480248 19394.9488037  
7266.61927621 1671.15196866 -139614.903932 -465.57764916 -16502.4838789 15248.2476065  
1139.10043462 -2389.75056795 -183634.327265 -598.902005345 -14432.8705441 12404.2643146  
-2518.59382847 -4675.35486162 -217173.131736 -769.660688157 -11495.9191276 9292.15382614  
-5826.2517269 -6843.64535728 -240869.248429 -1162.94835752 -7531.27800288 6034.72530831  
-8305.9872066 -9529.07876325 -255937.491052 -1813.7621097 -1570.87892327 3307.51530907  
-16690.8932733 -21415.7515112 -274930.758375 -1934.26718332 9964.07983963 2840.59126581  
1012.87378508 -14530.5178202 -258330.388805 1265.68488216 30197.4388036 28334.8791282  
7185.50689774 -19787.8435835 23194.7859237 2609.90469359 3592.50724193 -7066.08921355  
5944.29902034 -12144.5248346 55541.3398248 1611.589132 7009.97300223 -9902.34108781  
10509.8282927 -2779.24898763 97133.879614 762.132081582 9199.38638047 -8805.3176067  
18121.6826759 8871.07704733 131662.863217 55.9504517717 9268.3884945 -5702.94186536  
26928.9435284 20357.6671505 153416.564144 -648.717336236 7437.06798044 -1505.71242886  
30914.2390868 25980.5644045 164223.199317 -1120.45297556 4778.44205646 2438.72112001  
30330.6688505 26027.2879977 161510.149906 -1281.08284131 1601.79166493 7563.2491265  
25061.7499513 20170.6891569 145101.774218 -1135.66298728 -2201.34649581 14121.9758928  
21570.7206305 15351.1781846 105276.471997 -689.513750276 -6626.43759245 18973.8588371  
18690.3465637 12409.0375522 46096.993606 -356.290062534 -10953.2537101 21005.0725804  
14097.5461622 10158.37287 -24160.5531794 -150.871962885 -15211.7449956 21629.7969785  
12333.8256165 7067.98798399 -91255.5031298 -909.826943304 -17466.4680523 15850.2065446  
6204.19930301 92.2577478103 -143012.043038 -522.019197139 -16544.8606976 12344.8601442  
644.534644013 -4848.02637655 -187329.867732 -422.122091422 -14578.0583606 9999.88473879  
-2416.2633295 -7465.52213818 -221520.517232 -424.147316002 -11657.4702952 7373.98819225  
-4833.97988196 -9727.73731204 -245345.267585 -590.012661273 -7259.25984893 4675.54054651  
-4931.18978811 -12332.6573936 -257737.38617 -719.184790006 -28.829227795 3203.04983622  
-10827.5525981 -25016.7950203 -267524.940006 -209.782489547 11021.7176514 3690.31461963  
-8825.70521135 -53941.6589344 -271143.66994 402.999470877 24395.667069 30917.2187176  
6942.14139579 -30240.0128425 23415.7298071 1642.08466997 1728.56215078 -7236.34107139  
5776.22950895 -19210.9636296 56175.2623405 1050.70358446 3388.90087503 -10030.9015849  
10184.5685514 -6198.90583154 97984.8356461 460.159400263 4512.75082161 -8822.11402537  
17781.5330578 9519.89857835 132289.198622 -33.54384372 4560.33132361 -5562.82105551  
26548.1452798 23998.0494018 154438.925522 -467.007126454 3687.0065609 -1304.96896973  
30515.9703637 31483.6621286 165152.867251 -760.241361421 2427.6369816 2733.39010047  
29692.0958769 31959.9893916 161862.25442 -880.284773117 883.445210981 7953.96031684  
23655.8240884 25263.4656237 145081.881028 -865.029084619 -1159.37500349 14629.2529183  
21300.7033094 20214.1306134 102226.000545 -590.105223915 -3627.13602374 18359.801173  
18091.8201805 16154.8193531 43280.9239888 -343.952188682 -6181.05399438 20015.9594334  
13825.6562955 13762.9258604 -26674.8818389 -187.027456139 -8604.40498106 20228.0870815  
12045.7543846 8515.97825573 -94118.6961623 -605.797906519 -9846.35014065 14371.93021  
5820.91098818 -402.681249461 -145504.977964 -319.37287237 -9256.17739085 10984.2182901  
422.344850556 -6582.56442422 -189739.233176 -231.054260874 -8197.65328068 8883.78633354  
-2120.09111566 -9740.41197586 -223557.579986 -210.762510545 -6535.11778315 6519.36586168  
-3637.84842853 -12566.3736394 -246262.019006 -231.908638292 -3808.23135189 4215.62822038  
-3156.70040698 -17079.2169744 -256497.253199 -191.156402739 550.003821711 3151.37797554  
-11714.1886992 -37735.7415641 -268912.386636 -79.8817616655 6473.54028002 4220.70647871  
-13629.9287949 -69786.8792187 -277747.331291 529.763562876 11626.0279224 32470.0661039  
6690.0697094 -34160.9812989 23355.9885812 4.09954736824e-10 1.80762071977e-10 -7360.88670486  
5587.69549031 -21898.0765991 56283.3515884 1.38243194669e-10 -5.1147708291e-10 -10201.2675652  
10007.086259 -7450.63361485 98249.3967722 -1.44359546539e-09 2.95926838589e-10 -8976.91937309  
17651.8630253 9821.98954967 132509.22864 1.06228981167e-09 -6.71661837259e-10 -5641.72230406  
26428.3810103 25409.3083585 154834.760659 4.3360159907e-10 -6.01403371547e-10 -1331.53820924  
30414.8338261 33599.2393864 165535.567625 -2.39879227593e-10 4.53155735158e-10 2780.31312278  
29510.9987559 34299.431264 162038.634429 8.52651282912e-11 3.49189122062e-10 8083.20027006  
23171.5002727 27451.8768495 145122.377971 -1.54614099301e-11 -2.91464630209e-10 14859.2263895  
21292.4132204 22341.0442984 101103.768205 -1.17324816529e-10 8.57056647874e-11 18211.6047216  
17955.3296201 17815.8303203 42209.5379848 -7.45785655454e-11 4.55884219264e-11 19765.9617557  
13816.0360413 15224.5762644 -27691.6398185 -9.41327016335e-11 -1.90709670278e-11 19875.3586017  
11972.8155579 9078.36505344 -95188.4704212 -2.80579115497e-10 4.97266228194e-10 13958.1116655  
5742.39467634 -498.956285522 -146392.488152 1.1226575225e-10 -6.96957158652e-10 10602.0943612  
401.745419844 -7107.8527291 -190511.119086 2.64307686848e-10 -1.08855147118e-10 8571.1186188  
-1950.16983025 -10539.4918264 -224089.263735 5.1443294069e-12 -8.07176547823e-12 6301.54400857  
-3200.07584201 -13704.5784303 -246210.419375 -1.46940237755e-10 3.9619862946e-11 4093.84987974  
-2920.59244563 -19771.4669024 -256374.510511 1.75987224793e-10 -1.01067598735e-10 3169.06946287  
-12406.1051524 -42184.0616307 -269575.023462 -1.01181285572e-11 1.23634436022e-12 4410.62732525  
-14401.1843969 -73617.5227394 -279147.885324 7.39532879379e-11 -3.45039552485e-11 32867.5480193  
6942.14139579 -30240.0128425 23415.7298071 -1642.08466996 -1728.56215078 -7236.34107139  
5776.22950895 -19210.9636296 56175.2623405 -1050.70358446 -3388.90087504 -10030.9015849  
10184.5685514 -6198.90583154 97984.8356461 -460.159400266 -4512.75082161 -8822.11402537  
17781.5330578 9519.89857835 132289.198622 33.5438437221 -4560.33132361 -5562.82105551  
26548.1452798 23998.0494018 154438.925522 467.007126454 -3687.0065609 -1304.96896973  
30515.9703637 31483.6621286 165152.867251 760.24136142 -2427.6369816 2733.39010047  
29692.0958769 31959.9893916 161862.25442 880.284773117 -883.445210981 7953.96031684  
23655.8240884 25263.4656237 145081.881028 865.029084619 1159.37500349 14629.2529183  
21300.7033094 20214.1306134 102226.000545 590.105223916 3627.13602374 18359.801173  
18091.8201805 16154.8193531 43280.9239888 343.952188682 6181.05399438 20015.9594334  
13825.6562955 13762.9258604 -26674.8818389 187.027456139 8604.40498106 20228.0870815  
12045.7543846 8515.97825573 -94118.6961623 605.797906518 9846.35014065 14371.93021  
5820.91098818 -402.681249462 -145504.977964 319.37287237 9256.17739085 10984.2182901  
422.344850557 -6582.56442422 -189739.233176 231.054260874 8197.65328068 8883.78633354  
-2120.09111566 -9740.41197586 -223557.579986 210.762510545 6535.11778315 6519.36586168  
-3637.84842853 -12566.3736394 -246262.019006 231.908638292 3808.23135189 4215.62822038  
-3156.70040698 -17079.2169744 -256497.253199 191.156402739 -550.003821711 3151.37797554  
-11714.1886992 -37735.7415641 -268912.386636 79.8817616655 -6473.54028002 4220.70647871  
-13629.9287949 -69786.8792187 -277747.331291 -529.763562876 -11626.0279224 32470.0661039  
7185.50689774 -19787.8435835 23194.7859237 -2609.90469359 -3592.50724193 -7066.08921355  
5944.29902034 -12144.5248346 55541.3398248 -1611.589132 -7009.97300223 -9902.34108781  
10509.8282927 -2779.24898763 97133.879614 -762.132081585 -9199.38638047 -8805.3176067  
18121.6826759 8871.07704733 131662.863217 -55.9504517694 -9268.3884945 -5702.94186536  
26928.9435284 20357.6671505 153416.564144 648.717336237 -7437.06798044 -1505.71242886  
30914.2390868 25980.5644045 164223.199317 1120.45297556 -4778.44205646 2438.72112001  
30330.6688505 26027.2879977 161510.149906 1281.08284131 -1601.79166493 7563.2491265  
25061.7499513 20170.6891569 145101.774218 1135.66298728 2201.34649581 14121.9758928  
21570.7206305 15351.1781846 105276.471997 689.513750275 6626.43759245 18973.8588371  
18690.3465637 12409.0375522 46096.993606 356.290062534 10953.2537101 21005.0725804  
14097.5461622 10158.37287 -24160.5531794 150.871962885 15211.7449956 21629.7969785  
12333.8256165 7067.98798399 -91255.5031298 909.826943303 17466.4680523 15850.2065446  
6204.19930301 92.2577478102 -143012.043038 522.01919714 16544.8606976 12344.8601442  
644.534644012 -4848.02637655 -187329.867732 422.122091423 14578.0583606 9999.88473879  
-2416.2633295 -7465.52213818 -221520.517232 424.147316003 11657.4702952 7373.98819225  
-4833.97988196 -9727.73731204 -245345.267585 590.012661273 7259.25984893 4675.54054651  
-4931.18978811 -12332.6573936 -257737.38617 719.184790006 28.8292277948 3203.04983622  
-10827.5525981 -25016.7950203 -267524.940006 209.782489547 -11021.7176514 3690.31461963  
-8825.70521135 -53941.6589344 -271143.66994 -402.999470876 -24395.667069 30917.2187176  
5909.69009797 -8541.11131501 21406.4060113 -2012.64489522 -4249.11045554 -7747.69491793  
4822.73122989 -4971.21477791 53561.6453212 -1190.23050433 -8063.11940846 -11114.2247507  
10026.5292542 714.61599761 95440.3831977 -670.705420536 -10413.5671358 -10342.0772689  
17666.6757894 7664.06596807 130400.797885 -263.68890154 -10451.7055868 -7288.20837873  
26546.4833404 15526.2184271 151601.804 219.985089484 -8360.36439522 -2720.83181782  
30799.6574711 19370.2967095 162880.727096 572.5330603 -5247.33894192 1438.00329061  
30673.2573331 19399.8431973 160967.823932 728.373037238 -1563.45903893 6808.76428937  
26328.7054694 15533.714332 145129.394114 574.21150706 2413.06468701 13714.0292528  
22131.9874658 11629.9439403 108565.621269 273.317799681 6871.01481923 20352.3624558  
19849.3008655 9751.61101927 48867.3974769 40.6568898035 10790.9009909 23014.4052291  
15047.8515315 7377.62661625 -21308.566525 -191.822270721 14898.7233882 24619.6894125  
13742.8194576 6389.14867973 -88151.5107563 525.692312726 17278.480248 19394.9488037  
7266.61927621 1671.15196866 -139614.903932 465.57764916 16502.4838789 15248.2476065  
1139.10043462 -2389.75056794 -183634.327265 598.902005345 14432.8705441 12404.2643146  
-2518.59382847 -4675.35486162 -217173.131736 769.660688157 11495.9191276 9292.15382614  
-5826.2517269 -6843.64535728 -240869.248429 1162.94835752 7531.27800288 6034.72530831  
-8305.9872066 -9529.07876325 -255937.491052 1813.7621097 1570.87892327 3307.51530907  
-16690.8932733 -21415.7515112 -274930.758375 1934.26718332 -9964.07983963 2840.59126581  
1012.87378508 -14530.5178202 -258330.388805 -1265.68488216 -30197.4388036 28334.8791282  
4418.47870965 5434.3198201 -264608.113415 7209.90227257 35422.7234033 19161.1615049  
-16183.4259241 -10789.1316999 -254867.264612 -1753.20051796 2826.84359769 -1131.58940655  
-843.71012928 4846.99924435 -229992.888648 655.955642492 -2494.71025269 5361.02405399  
-1283.92061295 3002.1547057 -221935.703189 1331.27880708 -7660.54674355 10805.8558923  
649.522304878 2564.0805618 -203444.381349 1142.51844193 -11625.0876138 16828.077789  
2977.0472904 2094.20921472 -174871.574293 92.4286073221 -15107.9480041 22422.4670949  
7730.74744959 2632.54414412 -136149.016277 -1521.24501774 -17741.8710809 27028.8674808  
13031.1496432 3343.13786215 -91136.4017385 -4340.19133424 -18486.8059315 31863.3006542  
12052.8086091 2355.57507811 -25947.4190576 -5746.19875119 -15448.7372162 32365.088889  
17299.0930483 6341.72193859 41954.4608787 -7497.83245501 -12313.4690206 31625.4051986  
18620.2356615 7546.52163718 103605.485541 -8939.86010042 -9248.20638077 26503.6498226  
23381.3440189 10315.6888847 138955.161549 -9228.85176288 -4825.47015296 15871.4427507  
27802.5383526 12307.5121374 154016.170603 -9083.51795152 19.5608113177 5833.5476846  
28340.9111158 12419.5681711 155933.754668 -8428.7037421 5014.62168581 -3087.20514449  
25134.8939901 10788.8962071 145861.442881 -7250.10587211 9155.54209919 -10247.1212389  
17589.6106489 7116.06466269 126800.843827 -5613.43132026 11533.8983672 -16648.7341482  
9854.83002177 2580.29103834 97004.0779283 -3670.70966879 11710.5666762 -20578.5717307  
4889.1310084 -628.500681376 56102.7139083 -1467.89379521 9216.51197824 -19533.6961388  
6759.21752326 -1969.81288508 23967.9630481 788.700453581 5263.43601087 -13418.1653631  
4642.55661239 -7550.35039143 -233842.638565 -680.875695527 -10539.1935006 31454.9244195  
2677.4371634 -1026.68471844 -261206.222081 892.541662258 -8365.24168901 27979.8855946  
-1490.22186415 -1545.37058626 -293815.972692 984.436785491 -7149.74689164 26883.6587936  
-5038.52335426 -2940.5981403 -326292.881815 1042.37788452 -7514.57181446 27577.873373  
-14335.1543541 -9627.857607 -368882.680156 1376.70986323 -7998.75350053 30064.3088129  
-28737.202856 -18078.484899 -421164.263412 2110.61578953 -3979.19639375 37962.4183971  
29240.2442614 26394.9457501 -379038.843936 4524.98964857 3199.53240855 71342.3016196  
8911.81759986 20929.3662403 -308379.374145 -4597.75894381 -1722.33865694 -68222.3311946  
-36.426781825 3177.22621446 -343892.154625 -4223.46352908 -4672.82242243 -47092.680932  
-2401.30640107 30.1095429084 -326258.411004 -2578.60337772 -6237.5509341 -36017.9847495  
-1155.90033766 -830.350081741 -303033.814405 -1768.84742419 -6122.22967403 -33088.9433515  
-933.791492627 -2464.64126784 -280530.647651 -1063.44833359 -6534.64240899 -31229.1356558  
4740.19602976 -370.150157836 -251280.869243 -409.534464844 -8343.73596051 -30512.4890736  
9289.23371358 -8620.22573923 -229393.94867 720.264007938 -11066.3892029 -33428.7788979  
170394.96592 51546.6606312 -40437.9459769 26163.6085285 6789.69476208 -169807.987336  
152933.209492 -16621.1956866 -90241.0295356 18385.0721461 197.152948725 -105002.383209  
217220.718765 -19839.7561963 -87228.6640547 8288.66151651 -1375.11864692 -39908.3407402  
237634.096426 -17127.8550519 -85871.4274941 -2378.18853853 -1546.90737662 19845.2327285  
220173.958268 -10735.6227573 -82093.5040243 -13666.7690095 -286.03147113 76100.0751633  
170698.988194 -3381.59943917 -73247.0298064 -26524.514696 3993.31335848 118522.110606  
184373.752175 64103.2298673 -8974.96516184 -41263.4200311 7228.02591773 157250.110323  
14219.0450102 -43250.5499648 -348020.301992 -34454.538165 31036.1996714 170471.739159  
91290.6141257 9901.40196233 -90047.1288842 9949.44259247 -7515.35952159 -1896.59835143  
111933.237355 14591.253642 -9065.41095202 7291.2415404 2461.86782157 -1658.8451616  
106852.747432 1935.7630548 -1551.50625474 2774.75182197 3348.34939707 -5730.37967984  
67019.0255669 -752.564893547 9278.38178704 36.2759483006 2825.30438053 32.2356968388  
105146.779064 39.5904340005 4327.06752395 15.1837600474 2057.36925297 23.5838854867  
108506.604412 1340.88109144 4065.41741487 -103.614447668 2289.6197022 3565.99627508  
110995.171283 3365.16756433 -418.186140035 -3128.55717327 3026.66357037 5051.21757175  
117062.400131 16540.5983011 -6856.42829374 -7954.78963346 2463.39044418 888.444762393  
-23208.3836104 -10237.2019584 -183553.633408 2692.09194882 -21820.6834306 -17553.5210147  
-29954.5158647 -11774.8592398 -158847.514284 2817.91470971 -18639.9964974 -7995.32789261  
-27856.144862 -10092.6200123 -133165.753826 1696.97950502 -15121.6582216 -317.871847091  
-21118.8655768 -6946.42258782 -107154.210277 456.121781635 -11981.3697952 6893.53515597  
-17873.4608607 -7056.12172613 -70381.1854232 -25.5904586768 -6717.26179738 10864.969305  
-13667.0063352 -4380.85422603 -36344.5850813 -32.1602120982 -3010.18037257 12152.9595153  
-10764.357966 -2342.96845478 -10251.1330951 -84.3157606436 -338.317414056 9613.4288781  
-8779.21504444 -1121.91640294 5720.26941778 -86.234530123 1250.24587313 5164.61132218  
-8143.46122688 -804.141194831 10875.3540082 -4.72261686059 1767.65062614 105.200206745  
-9008.41049157 -1234.59388108 5351.46739854 32.0277879613 1266.26110873 -4977.9704974  
-11046.4351708 -2462.69359927 -10927.5011457 97.5253813719 -286.76487479 -9211.88268003  
-14085.4186681 -4546.21767593 -37614.2429004 -2.2971861536 -2905.38303822 -11710.702695  
-18181.1306459 -7205.39309841 -71846.0956287 -116.345841959 -6574.44621141 -10529.5623871  
-21498.2813938 -6957.47359883 -108866.073639 -569.401807654 -11635.6447353 -6274.36004393  
-28067.0235274 -10309.4283251 -134753.083085 -1883.16193631 -14624.3362638 675.089454671  
-29987.9589991 -11712.8034395 -160250.705198 -2772.07418666 -18099.1271835 8328.33407158  
-22359.7554344 -9869.40130175 -183867.880471 -2693.06655556 -21578.7264655 17349.9748034  
6329.93629096 -1814.86032614 -204812.338339 -2458.69494372 -24541.3204431 21104.8707422  
6573.47470177 -5854.97450335 8096.07935803 4613.13244069 -948.85040308 13438.5177192  
5626.41816551 -3720.35057727 -12410.5961311 6900.77552091 1208.55199584 12550.7907255  
-6091.79683047 -1962.48847764 -30260.3764691 6303.65954155 3558.43566281 -5086.66851328  
-36308.6529139 29.667072241 -43598.0876551 2953.22998226 4425.39258269 -34429.0138687  
-86278.325726 1550.80895363 -44470.3810503 -3625.18452649 5259.14476749 -63108.8988619  
-156436.634012 6854.88384934 -52788.3489426 -13183.9102189 6897.05492058 -97641.3154339  
-171412.591166 54177.2079088 -52707.1896536 -9633.71895258 6385.74997827 -139562.573447  
-271456.157907 12146.2509407 -309209.645178 -8311.42107865 17842.5752232 -130579.837339  
-270639.252221 53035.3615457 -324818.887228 -10122.4310362 17208.3571348 -66125.1917233  
-289736.324937 60022.1202667 -337003.639168 -531.67866302 15974.8587414 -4872.76769005  
-270682.875424 53182.8237201 -330277.406538 8984.76506794 16558.4463154 56710.9319228  
-264503.444104 14957.2024055 -317012.658441 6765.58432391 18049.3929528 125671.299023  
-169112.181755 54010.0509556 -66359.9733349 7059.22196535 8216.57179952 148992.130406  
-161227.195113 5278.51727748 -60240.7713803 11224.2586243 7562.43680072 108570.211419  
-99161.1284041 -4526.88979262 -56577.3333224 3177.48432553 5646.95670754 68879.5289023  
-42588.977118 -2300.05931718 -47917.7342821 -2715.13448418 4360.72483642 36120.2949058  
-5541.19793917 -1651.96642812 -28496.2205304 -6213.74400309 3386.81187073 4429.31579159  
7168.69963941 -5466.70977697 9394.17745071 -4628.84082809 -1055.60803118 -13592.8603819  
-2974.93195526 -4169.8727669 14611.9602692 3107.30680091 -1929.6620639 17762.2605948  
-4996.84637806 -1755.7829169 21387.1917496 1367.73282157 -2452.7664824 16385.7506676  
-3078.7855129 1597.14473763 31492.1511003 -90.5353932249 -2742.04624631 11962.5662729  
-10757.9438952 -964.177691303 36214.2736963 -1893.713996 -2419.21412713 6076.27230409  
-14351.7721181 -1944.70207987 35958.8709608 -3148.24777427 -1830.20540518 -2773.31452212  
-15015.8942081 -799.690797677 23312.6450718 -3135.49369854 -813.547548201 -15655.1559076  
-13832.9017622 709.378916022 -3390.93345166 -2171.83779328 321.239595254 -27461.2784441  
-7831.98049223 3412.73951935 -37848.2839206 -1588.41957514 1235.77622562 -39598.8412344  
-3087.06040621 4207.26175348 -69268.7512661 -1265.03173311 2071.1188338 -45506.3270878  
38.4978107363 3288.87677921 -97943.9275867 -1056.83515446 2971.3909587 -45708.7784089  
4723.66555894 2962.57198662 -122704.17609 -997.661655064 4077.49414857 -43630.9692049  
8738.79571002 2645.11895717 -148231.870475 -136.864726358 5055.47373211 -39238.5392321  
11409.713737 2379.81928528 -172356.565865 535.01843772 5182.81373656 -32032.0614435  
12136.8298706 1629.30195065 -192823.017067 767.821575133 4820.85575439 -23689.1607661  
9197.70567492 -1072.72066668 -210109.527712 645.515418568 3696.52835049 -15675.7923711  
1569.84806129 -7829.42066271 -227436.221463 464.197671479 866.236948054 -10005.6527072  
-9624.62426133 -18282.4964812 -245271.107689 831.02189583 -7634.19888291 -10985.8663911  
6103.75007091 -2021.63580029 -204369.94349 2534.54469158 -24657.3527928 -21281.7013243  
-9094.14008803 -18155.6919771 -245927.810369 -872.81049983 -7551.70834671 10531.6924782  
1946.36063241 -7528.73762275 -228250.921381 -448.796750044 925.682763328 9467.19549977  
8506.82397994 -1126.67647248 -211664.291521 -575.274699191 3854.44364638 14814.6853266  
10473.1773434 1220.59533466 -194586.718805 -672.036692087 5176.98264405 22191.0594712  
9143.58328354 1600.36557152 -173443.021853 -458.87281785 5789.01559805 29522.5224905  
6958.68167642 1920.2521365 -147449.254691 90.6293973987 5741.06413095 35725.7796318  
5351.59145676 3628.66452335 -118102.953857 794.181994849 4836.1173973 40152.4835645  
794.799960058 3373.19796267 -91015.5904756 674.698270799 3438.88722125 42128.6639  
-1759.98278757 4421.59364546 -62988.9279955 1058.44032037 2405.04548182 43257.2331033  
-7385.88187859 3428.2210811 -33158.8962873 1592.03397699 1390.76547933 38157.9666945  
-14184.1637575 1001.65371776 -2852.68571628 2397.27475596 398.422887783 27503.1623865  
-16432.0774728 73.6254155883 21812.2007884 3416.76519373 -718.574208163 16631.1954045  
-15078.2865786 -1280.34368415 35392.3864034 3062.79750087 -1879.28487858 3413.21085677  
-9698.67038365 -787.222954046 37981.1586234 1748.43322248 -2716.59966516 -6259.7048956  
-5862.76190089 -443.958727439 33038.3641512 30.2314639138 -2971.28479787 -12368.8111527  
-4429.30534407 -1928.595448 25056.1185078 -1523.5144291 -2620.08827909 -16808.8531289  
-2174.832838 -4218.97495765 16874.5465776 -3077.15907505 -1988.66128852 -18322.2851227  
96405.1792629 12535.9235722 -88502.5654088 -10802.6068549 -7792.51681789 1824.61921325  
-156768.512355 -79460.0295305 -455410.043089 -12855.897019 16992.8412257 121761.543736  
-93197.5204612 -26870.2256464 -337976.456659 4543.26625466 7466.29459853 -102551.552413  
61577.9229027 4293.7433718 -187446.935036 10168.9585643 -9569.89420485 -28094.0222953  
59392.7215486 2237.70216018 -190240.548671 -10523.8326201 -10356.3178952 28801.5169477  
4656.58436477 -822.970129818 -202305.637348 1158.71378775 -1371.91258356 68914.0887505  
-4286.99457464 1889.60652034 -220146.375943 3179.74253593 -2588.18684674 64119.9601145  
-13327.2489181 5738.55395781 -295502.810983 5599.33893812 -3964.57946005 60333.9228248  
-43729.6272692 -2212.81592437 -296029.797186 6479.30277794 -1859.10228384 73673.7037603  
-121663.647384 -49084.1190363 -336155.591911 6140.39617227 6257.67902712 65919.5819268  
-71993.2711188 -13267.0331331 -255435.204915 -10056.5479033 3260.91715395 -56288.9292625  
-45783.7654394 -145.945947272 -262911.009786 -8888.28583768 1379.94955152 -42496.0737349  
41332.131822 -33154.0065867 -304517.840365 20615.2161703 26861.3855784 -172261.783676  
85834.7874999 22697.2679407 -100495.243563 -18712.7478703 1150.11043272 229708.463979  
38356.3546346 -27915.1425014 -270369.685055 -19874.1903265 16914.7937454 199204.803791  
5204.56791998 -14960.6950021 -323107.498043 -13437.1296921 23115.2515909 97368.4395945  
65379.6600438 -5108.71225436 -174361.362346 8502.3201625 -6146.09069994 -19268.3692777  
29574.297131 1054.89637104 1220.31906317 894.988521006 3481.8925521 2654.08416268  
64621.1291836 -496.925647451 8150.04283526 206.622782495 3213.0102019 -3098.03606168  
63357.1523141 1790.32792011 2362.29069481 -1675.30836107 4435.37817607 1741.11407558  
71718.3262036 8823.56711573 -21067.9722691 -4181.87584393 3473.16152924 -5889.3532526  
61784.906753 4662.30606219 -87472.0392316 -6029.89977691 -197.974660573 -7509.1583961  
-7599.76042105 -12150.8898382 -206845.517931 2854.45029242 -7329.38113301 -15165.3701236  
-12216.9294805 -12051.3049376 -178429.530611 4212.16646715 -7031.42133016 -12303.9532015  
-11895.698241 -10094.37592 -148723.4027 4689.61115162 -6248.93504176 -5272.77487196  
-7789.74358917 -4950.47560397 -117403.418939 3891.17007181 -4855.9916466 2174.17071455  
-6825.05670552 -3184.42191465 -76649.0609775 2309.32478007 -2232.9382698 7819.68340759  
-6788.62109788 -2442.668918 -36879.7828416 1200.90835019 -85.4433466505 9697.97542516  
-6003.6986655 -1235.28308134 -6946.36352358 563.256791345 1264.31866899 7405.21456707  
-5308.45322278 -871.752815916 9637.1630894 242.614502868 1912.60434137 3765.43271099  
-4994.83894906 -885.232162897 14692.4890204 -20.1655208144 2110.99147743 18.4210020458  
-5151.39969422 -931.365240627 9038.9899407 -246.407721605 1918.85601108 -3661.58829348  
-5616.90700024 -1280.52255699 -8360.64867523 -625.719366886 1330.28091704 -7319.16613683  
-6362.71474344 -2419.37475846 -38957.7309143 -1270.36027234 123.510855532 -9274.84423031  
-5425.26112519 -2533.83528502 -79920.3144465 -2558.86307015 -1891.65684942 -7266.6423448  
-7228.18610453 -5618.64684918 -119604.882449 -4182.09931355 -4253.22385612 -1592.09839507  
-11272.2789487 -10594.218369 -152095.920816 -4803.86610062 -5417.6454144 6298.74467309  
-10452.3530988 -11537.9701978 -179787.294716 -4202.82674344 -6154.44453243 12764.3003001  
-5965.50141171 -11396.8758188 -207134.327138 -2855.1678959 -6871.67390584 14786.8561202  
-13159.36551 -4017.19706394 -31025.3628544 4441.79636838 2123.61731082 11032.091123  
-31955.1698504 -5023.41544944 -72038.0503611 4339.3886032 6141.81423736 -23742.160736  
-58679.4806776 -9230.29084625 -91405.9849049 2687.18869192 7750.43944619 -68550.8892703  
-71271.8956458 4175.43432198 -64901.7823124 1056.93899708 8921.05014952 -116012.951172  
-88648.4767276 18139.4947757 -55990.5784537 906.128923472 11704.170485 -166800.466022  
-106205.29836 24946.2341993 -108757.558336 533.04219397 12930.9080958 -212755.316518  
-150150.056021 -10967.908897 -264946.933428 769.808932783 16718.1949029 -198830.269894  
-130398.779742 7654.90069097 -314811.557748 1201.05764814 16753.3023027 -117868.80105  
-121723.99123 19608.8091739 -325156.54796 224.814061285 16820.5800891 -17233.8470357  
-126995.549217 13065.9133233 -321208.741141 -1054.80449933 16193.8546967 87560.838993  
-127879.49449 4000.00360993 -265521.750041 -1544.57655951 16117.6227933 183250.102469  
-88712.3778606 31695.9425417 -118357.051603 -1748.45310238 12262.4550238 219247.441081  
-90246.1392366 13299.2570625 -78506.1090806 -1951.81102719 11997.5006553 183589.930017  
-81514.2324576 -5743.89707901 -88745.8824935 -1334.09087067 10361.1580303 122264.765944  
-51592.8351235 -5118.73932787 -83238.0641507 -2630.69593147 7557.4409118 64453.3891715  
-24107.0436622 -938.442987024 -59092.763385 -4345.93221355 5648.03459371 17961.3275998  
-8964.18811947 -2288.44602148 -22484.8373688 -4601.24638562 1738.82984794 -13800.4065042  
-5905.83752182 3876.19784641 -48200.2557934 1715.51220412 2419.21819886 3949.13724039  
-557.576013828 9718.22214363 -62482.5068816 -2173.96750869 2529.57353132 3663.02878532  
-11024.7278969 7019.97558573 -78216.6022216 -5243.64480012 2433.67680964 5.35310237338  
-21475.4360898 2542.05809838 -87589.371854 -6693.24307981 1099.40127217 -12677.4555421  
-21815.7926696 4679.01867249 -91194.4715831 -6366.7405767 -37.0647489839 -29688.9793961  
-18595.1183905 4905.12073006 -103406.471989 -5091.08262488 -143.951825328 -46435.9871905  
-9791.50682186 4778.21499042 -113886.357926 -3661.84983784 -69.0908306361 -58079.2713968  
-3256.42691859 3562.5451086 -126274.653896 -2801.29598044 308.235033591 -64488.5384582  
1931.85141254 1833.28801709 -140533.760349 -2124.50630515 701.01447285 -66982.81666  
6588.81310845 1008.11820216 -153626.802689 -1340.95208134 1401.51948771 -67190.8905952  
12529.0481728 1002.47548386 -165013.244465 122.642089604 2082.56801297 -63072.1629489  
20227.8377065 1939.76045937 -175504.973203 1314.22555733 2000.44051759 -52885.4897586  
21008.7013556 851.536753334 -186211.883372 1802.23267578 2381.6014556 -39424.0687219  
15994.5982169 -2015.37183597 -195649.17846 2021.56198857 2232.47591338 -26292.9758126  
5325.52369496 -7072.78946392 -204382.742883 2283.49260487 208.637443648 -17577.6022422  
8444.11407566 -5336.15849432 -203552.798314 -2215.904041 540.003837797 17071.7098966  
17363.5575876 -627.852733336 -195143.260335 -1921.92213204 2511.74052654 26356.400365  
19576.3036145 1601.44550541 -185199.182315 -1571.20571063 2735.48437496 38677.8176128  
15416.3382144 1331.52033194 -173676.760902 -822.587913053 2523.13439755 50890.6956756  
10180.9814998 907.080788501 -159586.792369 81.6475622023 2393.1352102 59549.6199599  
6757.19821994 1343.41670841 -144417.520037 1057.04902614 1827.47476206 63568.2012664  
2496.49474026 2357.33728267 -130189.304948 1820.91582554 1137.08168626 64195.609797  
-3764.52764364 2448.67351745 -119766.928326 2605.34454762 431.506773516 62017.8512404  
-9845.84474493 4766.97698526 -109506.212881 3716.05235974 124.611702757 56645.5580156  
-19216.7256392 5338.59200397 -102656.439924 5426.64337489 46.7884541026 45590.0273898  
-25982.3602302 3452.91538431 -96643.402698 6943.05670517 448.501499211 29093.8868654  
-21062.3192389 6157.24855672 -86660.2570803 6776.90032115 1302.79622209 12220.9937308  
-7621.12618923 7779.98337443 -73009.6467498 4273.63999198 1921.4360479 140.355305822  
-3979.43064421 5705.72672011 -56501.6626137 986.751771793 2131.40102268 -5616.83400754  
-7771.16144638 1223.16963902 -38293.0695172 -2143.08107283 2050.69145186 -9215.53694734  
69362.19426 -3714.57594422 -170497.579605 -9573.89069335 -6396.70010608 16898.9657189  
2357.22615599 10940.4629571 -255837.323952 -3473.14577846 14315.9136144 76445.9099064  
45282.7419061 7376.68618497 -250532.698099 6363.11901531 18672.199249 -94192.1364587  
49096.9676308 -441.956037286 -188351.960273 4458.47940428 -2373.19079914 -48210.3442195  
59809.6952279 768.989150879 -182138.299263 -6593.64586621 -3039.0461738 38914.1003922  
42434.9624096 207.959093735 -195296.810415 -4498.96326369 -3952.13843538 55349.5290075  
9493.06114048 -4868.66427195 -216365.861419 -1111.44322038 -3924.20955782 57450.2101998  
403.123019787 669.487999386 -211022.760345 2197.34518982 -1985.06597353 65980.0734995  
-10973.7922917 3434.19646141 -224198.957725 4816.40154103 -2940.52575505 63915.0906148  
-26222.5485443 3021.45026564 -222878.704754 6725.97054337 -2652.64590697 62013.390287  
-50399.4135994 -3466.10149066 -222242.389225 9160.19205433 -641.726756785 51817.1790266  
-64712.3698392 -15958.9591243 -231214.441096 10943.3696866 4876.58333096 34692.5374685  
-8655.43472264 1942.37960796 -208305.188569 -3944.35877172 9308.77977389 -45485.1094533  
-59664.6632696 -14059.2217382 -211394.922439 -8825.91720052 2529.53790001 -40675.0282942  
-50594.1475549 -7774.98683264 -230428.539509 -6216.51783965 -706.400504388 -57476.2475313  
-40625.8611253 -6537.88676415 -249712.8421 -5424.9493652 -3006.04696904 -71666.1725355  
-43.0277156475 12289.365133 -236511.332157 -4779.72708029 -3942.32214664 -65793.4264924  
1127.64352914 5158.84406771 -244588.958652 -3415.82214964 -3272.04983418 -60684.0291965  
3960.2348523 3174.87672055 -235974.0676 -2400.03524946 -2947.45567876 -58812.8690826  
6790.72093544 1172.72505034 -224787.407378 -1484.01257231 -3257.19235674 -59313.1304481  
10089.4579355 -2723.99670493 -217619.793229 23.1911757855 -4025.97934602 -58116.7056083  
43079.3216901 4873.06440853 -188860.053781 2413.44491006 -3108.47119641 -59332.9430808  
45478.3926143 417.380196826 -149014.038584 10116.3442932 6243.85249424 -222292.880767  
14189.0241276 -11468.1620426 -205102.080769 7616.18407117 11742.4338998 -200294.407111  
66559.4020943 -2857.47228845 -136302.462224 8426.75146255 3858.99523828 -154675.871185  
74928.3600618 -13509.4026505 -154122.909659 2781.17946222 2279.9719129 -54499.6868104  
78506.3740996 -15921.3837868 -159925.252329 -2434.37494705 2496.56804898 50617.1897748  
71090.510234 -6848.68855799 -140949.048261 -8973.36396747 3583.25791028 150861.428335  
69620.4242403 9575.24628374 -128367.296246 -15000.8516284 7691.32639899 216583.17604  
42748.0971261 3024.07425559 -186713.484603 -13738.0056568 13270.6218097 216332.122014  
40850.8319425 -5553.2424808 -260005.887121 -7072.15077694 17123.5910617 112823.928473  
51450.7919741 -4436.60848695 -151423.332256 6491.6763617 -1427.43871625 -7555.65840768  
63305.6301366 6575.71748737 -83704.3600948 5887.41053089 342.479510384 8348.13715751  
69107.4858784 8505.92580019 -19243.5266651 3968.68783252 3638.04870457 6497.22627521  
31129.5511608 -676.225450543 11222.0447653 192.353009459 3131.3650212 -424.513264854  
32431.0323963 -1274.72024025 13195.1820948 4.95670110835 2922.17900374 29.0921189726  
31853.4709157 -587.337343691 10590.8268934 -242.497754951 3222.74522124 226.089409475  
31184.2706166 1320.56432254 -429.075037253 -1021.33537214 3586.41319114 -2875.7917824  
34712.1366691 3868.92883713 -29680.921698 -2555.16085171 3368.8340745 -8556.21510881  
43629.3668022 5691.62091896 -82073.1780042 -4733.9680269 2069.5594692 -9520.82105483  
55030.1448318 -5068.59654532 -149501.325144 -7094.01014467 -1822.97841722 5312.65020216  
8863.79903035 -6565.7538761 -180820.217535 4027.1221605 -572.74065724 -17299.2033776  
10041.4245529 -6616.65450789 -155451.073503 5087.62314263 -1069.05625721 -9988.59035539  
11749.4419394 -3439.45183026 -121313.056013 4937.83441354 -748.467586434 -171.920187546  
14549.2737436 1473.17748414 -80321.6712783 3846.73729967 925.383020406 8039.32002441  
9015.09068841 395.389291918 -33223.5595045 1874.37804184 2207.32852075 9031.01487421  
7668.53501861 -96.1956962668 -2809.33730691 735.987874312 2628.44837355 5673.24541884  
8234.5478131 -701.520140516 11589.9419261 248.972674372 2598.12278879 2173.16209216  
8638.19708784 -1127.99877794 15372.3519836 -3.68780282242 2581.45408806 -49.0466989338  
8817.51942898 -634.494917771 10947.2644238 -276.630328815 2667.37198094 -2259.28868753  
9236.65266048 194.878314329 -4464.49713869 -824.700570286 2690.4507852 -6015.22996633  
11362.3655282 746.514396638 -35473.827499 -1945.37952657 2350.03389977 -8997.46718396  
18686.6135745 2802.86825572 -80723.4124726 -4008.49757928 1274.12024796 -8311.14120441  
18195.4686349 -987.076398294 -120885.136845 -5088.64925552 -285.208502213 84.7312794111  
12741.7969627 -6338.01868578 -159323.239201 -5073.19481136 -558.769562986 12120.0327889  
12021.6249518 -5294.68963625 -181893.933858 -4007.51013283 16.5048469522 18615.8282441  
-22867.556767 -6518.18714964 -121526.020352 1182.43061025 7577.88430915 -33994.6095437  
-46852.8131643 -23171.3517211 -165891.359729 1949.26429689 9907.90164775 -93444.9280091  
-4280.87213196 16163.2932947 -100939.623674 3699.61270058 9203.31673851 -160971.785244  
63121.1920712 83303.2080732 -4363.50804012 10557.1901377 10504.6798662 -191195.690824  
-54791.6358066 -12119.4432309 -169894.992657 4413.83646507 15595.4576412 -227295.806326  
-60455.2043726 -23383.5429457 -222653.395581 4755.39337654 10937.3282257 -219993.751408  
-37662.6509386 -11588.2768351 -241246.456283 4107.05014292 9764.74069808 -149233.536057  
-29021.1090747 -6384.20912529 -255586.809088 1393.38741788 9457.8557906 -38138.9174826  
-26168.5137454 -2550.76593412 -246100.390863 -2752.17406741 9579.24226671 80824.1765216  
-18394.1467722 5152.88369779 -194208.428965 -4618.93362456 8847.48998626 182193.878817  
-3257.81424457 22623.106664 -129708.812261 -5828.4563051 11385.0954675 231187.136827  
-18293.3931479 7769.75616731 -134258.740285 -6816.36219033 14093.5171247 212050.303526  
-20616.6833312 -937.582140035 -135454.398674 -4217.25698075 12325.1205906 143644.585576  
-17425.2613966 -1130.11787261 -121413.067609 -1587.01004731 9185.09051615 75519.7839439  
-12469.6140967 2535.83171551 -96986.0674081 -1675.59478128 6884.78766446 25302.5634626  
-11790.2002043 -2941.02633697 -156409.91027 -2823.2263219 7707.39111542 -28089.971585  
-30187.4676916 -8511.59124981 -157014.686519 -6675.38119828 5275.12073391 -14956.382252  
-42479.9454536 -8284.87082982 -156317.004214 -8021.23346518 1920.41097394 -25081.8510745  
-34249.3353565 2901.76118695 -152535.509853 -8150.64604493 -152.800363363 -41293.0062199  
-28464.3155253 530.867030889 -168004.853367 -6489.00424085 -1279.6296753 -56374.552568  
-13422.9973046 3806.39475705 -175323.60396 -4688.18607144 -1712.05442867 -66018.8039817  
-1432.70134021 4867.34498324 -180186.460814 -3452.69856157 -1414.17480532 -68803.203586  
3836.28084926 2942.94112302 -183969.846171 -2557.84377406 -878.30317743 -70846.5484839  
7347.10284501 456.414716899 -186390.703804 -1793.52000688 -752.173020329 -72346.193241  
18684.7721031 -262.00488826 -188117.157894 668.768123909 -992.169778143 -69936.1765863  
30239.9710185 -620.790511899 -185980.353055 2260.24488457 -34.3979291688 -59259.2876228  
33394.5132383 -578.201465764 -183914.298209 3088.33091588 976.602543862 -42321.0940517  
23606.5856042 -3712.36052401 -183662.049263 3573.58251146 1073.77510488 -27268.3764614  
32156.6322284 1040.24428815 -179781.721992 -3452.56554151 1611.15708614 29464.8877159  
32804.0466445 2285.24497184 -180365.935937 -2257.28878814 1195.4380849 46205.1992095  
22802.595731 67.9651334897 -180903.280395 -1095.2154099 713.460543856 61706.9748603  
12886.9194831 -822.819651285 -177197.193222 88.6937837302 639.06346787 70336.2802551  
6579.57500667 -86.3380527825 -173107.643847 1205.84604326 211.436486524 72410.0464051  
1401.82715929 1062.05871773 -170936.978207 2256.37249681 -379.901266519 70972.0037494  
-4149.3566115 2589.01072774 -169128.224932 3358.78442567 -968.462708768 68127.417874  
-12691.5993849 3286.26126915 -166834.633178 4757.21615235 -1300.15282325 63260.896561  
-26134.1319582 2294.68639581 -163631.651613 6725.14117775 -964.214399881 54020.560531  
-41223.0885066 -1157.59003304 -161298.968433 8940.57993822 465.494228752 38505.5638011  
-40360.8512146 -4615.5477158 -160119.354219 9234.09765486 3033.35306331 21015.2505799  
-10546.3395323 5513.04147477 -138469.97121 5565.63780366 5246.39386553 16665.2620522  
4338.98857518 8544.3912229 -118288.002631 1442.0688889 6583.43001011 21854.3307246  
42774.4820525 -4704.21234257 -180465.0638 4849.28930322 -796.673882223 -31167.0949847  
5569.12914709 -12635.3524203 -217319.37476 2198.15218028 13292.4836432 -100683.247941  
6309.07141057 -1265.16765141 -170044.47544 377.242088617 10819.5352382 65143.7049362  
28497.4989572 -5911.42704582 -167287.363127 4993.98844072 118.656840723 -17570.7050549  
39349.6316075 -929.394579376 -165707.114003 -4803.75196951 408.915081002 22811.6299092  
6755.74150888 -3227.62363114 -10374.5118913 -6871.00422496 1056.02689685 -13252.0457587  
-40386.8629663 -13945.3816686 -201567.734884 -5022.81820674 5692.20943265 -38571.6106784  
32547.0640195 -3384.34831886 -133176.432088 5466.17109038 133.476607331 -2274.42286305  
39862.1472947 4934.28932219 -81463.7899942 4675.60694841 2088.8304845 9650.19572971  
32107.6595505 3632.03293416 -26928.3580378 2456.08435508 3379.20332672 8712.53247369  
44293.9219736 1512.1362239 -126717.748522 -5726.96976071 562.884015269 157.852528205  
44482.6975042 1473.68586621 -181021.946444 -3368.83584752 -821.941330872 46791.1834219  
30216.1592406 -1447.41193829 -190936.783069 -1917.27534945 -1013.12375849 63565.9302605  
12934.6336411 -2686.02812697 -196899.559651 -332.843963784 -1098.18775277 69858.4066793  
12613.210015 -9958.8698827 -207964.793334 -4861.22879353 13734.8796302 136828.36623  
41541.3727848 -14233.203208 -189140.371095 -7815.92143023 -2268.09544134 27231.8456084  
17650.0384862 -2354.97005817 -207635.671638 1587.03280902 -1722.36530129 -50956.1015793  
-10229.2498767 -5479.13926642 -218343.160325 4026.90613327 10548.5048664 45272.4417114  
-431.229287679 -49.1109745226 -251951.065677 1761.01887754 -4069.28887348 50661.3082835  
-5307.56703688 -1210.90597158 -275405.587487 2276.40130755 -4687.08959422 50228.8485994  
-11684.5585448 -1161.70518504 -295613.914795 3197.68048459 -4853.75669613 52820.0591716  
61199.7486195 1917.80055503 3533.4919335 1374.00686781 4227.24393662 -2061.87905873  
66598.5703445 -39.9176276561 7908.00212968 -325.962939907 3259.41390374 2868.10933757  
2325.1820343 -987.331093637 -231174.735107 1109.67113979 -3811.69173644 53273.1048816  
106480.053481 524.409838473 3484.6927077 111.047896102 2403.61817499 -3701.46576819  
3174.84733053 -11173.5521207 -233487.576169 -872.420679845 -12833.8457168 28065.1344246  
3411.93805097 -1853.848297 -262905.401638 480.638814526 -10743.5261123 22965.9018318  
-1324.71433396 -2766.03065055 -299752.049617 1085.11942714 -9243.36346045 22675.7293739  
-5608.69079557 -4933.11165182 -335989.322306 1412.21422568 -9014.30741294 24457.0112715  
-13859.9706431 -12533.2631863 -380973.010954 1925.70311145 -8156.52767706 28856.0909991  
-25430.8932678 -24810.5858893 -431583.926381 2242.70364268 -2333.46078133 41188.5044903  
32403.9689673 16103.069251 -380360.343336 3097.9002983 10151.1393983 76292.3342935  
11758.2537505 22115.6548795 -311566.215252 -4037.81026199 2632.16039074 -72394.2535765  
4197.75774988 1980.55508906 -354537.498458 -3833.49381523 -4524.22700422 -48312.5685517  
-794.197219525 -547.561218783 -336199.536026 -2760.60227575 -7446.04714228 -33637.464158  
-909.245005808 -1626.33006529 -310817.489083 -1939.37786752 -8025.1038731 -28958.8549361  
-496.579068095 -3369.08281921 -285216.113159 -1107.93951535 -8778.37207224 -26240.121997  
5547.23728152 -1188.01298341 -251964.872925 -15.9030830843 -10827.9781771 -25269.0955831  
8078.20570122 -11932.0629403 -228480.518404 1198.79735735 -13124.660666 -30137.9889643  
169096.706447 66018.0464442 -29199.3434173 32023.0831663 7285.59265619 -160685.351792  
156346.02998 -14173.2298448 -84780.6643649 25062.4976985 3003.39207725 -94340.2545065  
231087.303609 -14106.4538224 -80108.4173822 11361.4475012 678.961311676 -34981.8062739  
252385.841438 -12386.8612476 -79513.5430822 -3086.76254778 507.990205176 17249.9014776  
229033.634675 -7545.86758176 -78522.4378155 -17724.4459141 2043.74772971 66610.7545216  
164784.583925 -3528.23857436 -75403.4370165 -32111.4274932 6229.34316992 107247.93709  
179099.445733 76234.2449075 -2829.23772981 -44689.3855525 7024.24824008 153015.923366  
2076.84021831 -57264.5838722 -345083.327918 -35487.1255807 24779.3925083 165146.873911  
90276.6557724 14658.6824711 -90262.7571137 11826.4576623 -7380.96847481 -2128.91399838  
114581.940884 23190.1142082 -8810.82536359 10200.4465552 1689.36175095 -3412.8166934  
112101.401818 6440.39274831 -2955.86789389 4282.91890966 2756.17355038 -8882.60710138  
78836.5993093 -866.25273222 7075.17161958 -9.00175782691 3766.27820866 129.464785583  
113346.043145 2191.13017526 4028.82536978 -22.291712409 2468.53506792 60.3255343593  
115721.894399 4829.50884765 3765.05412008 -906.558340565 2563.32208731 4968.94144582  
115504.633374 8441.21976722 -1573.47388604 -4615.47695869 2513.20635466 8184.67727264  
119460.835549 26363.7102804 -6389.34410859 -10854.0030892 1637.45449128 2322.33526631  
-33099.2042897 -40574.7603313 -191763.158462 3025.34706218 -18476.8172812 -21671.8182609  
-37451.0102446 -36118.7991129 -164867.585997 3146.65833646 -16099.6076021 -12284.7288683  
-32276.4532066 -27915.8081399 -137495.856306 2219.68507974 -13844.3397343 -5077.83449386  
-23900.2326326 -20077.3842774 -104791.934387 1425.07466448 -10167.2918041 1285.95232131  
-18391.6777759 -15111.568476 -69126.2091626 898.925532508 -5705.96543111 6149.38455865  
-12732.7160498 -9145.9343927 -36372.842395 524.970541575 -2340.58414903 8059.02738798  
-8903.19790171 -4471.90430851 -11548.3692601 216.508012699 26.4169920706 6709.38104298  
-6407.0723017 -1621.62388086 3565.4134008 51.2701564851 1404.49238332 3664.67884362  
-5606.40400707 -767.381261164 8411.8237286 -0.546658637915 1855.93016144 122.18871908  
-6576.85406679 -1736.9779101 3230.13514381 -81.7710294484 1416.89151341 -3440.46401028  
-9145.77981048 -4626.54567037 -12189.223171 -205.943230371 62.8335954213 -6280.8490697  
-13075.9198809 -9349.02371381 -37591.2569019 -552.334144576 -2289.05658057 -7598.73052799  
-18684.1814533 -15278.9245302 -70595.6954593 -994.77896474 -5641.03293389 -5811.33562295  
-24286.5860324 -20042.0121593 -106420.078083 -1499.04445087 -9984.35300998 -667.491610437  
-32554.0147734 -28138.9604679 -139446.438024 -2365.91773834 -13572.3192282 5396.24572144  
-37533.2705577 -36006.1502534 -166408.483083 -3130.47791412 -15800.1981459 12597.4916689  
-32292.1086988 -40197.3103406 -192191.85429 -3027.36704204 -18341.5143494 21449.2387803  
-493.188367607 -33161.7718566 -211840.01399 -2413.42696491 -20699.398178 24386.9461058  
10486.9518221 -9932.16910466 8790.83822206 5421.52859714 -1217.80415384 12591.9200094  
13433.436538 -3320.99353317 -11572.8938565 7692.8020195 1352.03075573 12094.3620605  
7630.637567 2910.29052991 -29376.8017484 6317.2797249 3652.47101142 -2893.55340789  
-16033.5199873 9742.7755077 -42636.9188162 1269.49405239 4558.34977279 -27911.7194826  
-64707.26045 14547.9828328 -44901.7906881 -8710.5567104 5131.1608954 -53519.9987538  
-153227.16552 6272.23893221 -61303.84084 -21499.1198857 4874.00404452 -81321.9811805  
-165461.642293 69076.0233892 -31214.6890302 -31293.3584126 3161.58014898 -122728.031579  
-332964.749297 -59124.0217723 -345724.756886 -28618.8802889 -826.639862054 -115184.352103  
-323569.097524 4138.41368134 -324147.944696 -16083.2157686 -2845.79224952 -53477.2769555  
-359579.892536 -968.957274865 -343078.37912 -761.44685458 -4600.00378076 -3681.26101578  
-324448.510952 4209.3847261 -327828.890149 14452.8056417 -3297.39615061 45895.1559435  
-324884.84896 -54538.4404714 -347512.849986 26200.4796964 -1465.69301975 110249.8233  
-164112.664 66152.6371978 -43433.3001236 28536.3355409 2703.91672691 131167.042722  
-157649.877939 3767.02238151 -67467.5716413 19643.8078724 5077.45559409 91753.2564341  
-76907.0988144 7406.47334226 -55609.7574076 8163.8875773 5323.36926883 58404.6096786  
-21664.5479885 7320.67086956 -45792.5512032 -1277.82872344 4625.37684449 29050.852517  
8031.07761476 3102.48734777 -27717.8228757 -6301.94239227 3567.28703113 2285.83999794  
11074.2567802 -9563.98807852 10145.9734801 -5415.75254808 -1293.28395824 -12744.3547116  
-353.79479917 -6542.70776405 15472.9476082 3501.15044323 -2203.34813581 15863.1232753  
-4750.88265854 -3142.43933534 22042.5516403 1374.4295332 -2785.50055327 13756.255915  
-4485.16046367 1559.72196747 32064.3341055 -475.054880759 -3075.1854438 9081.39026954  
-12990.2461152 182.152189047 36120.7999113 -2334.77043774 -2846.63597844 3274.84071195  
-16625.339095 546.916278361 34990.0900695 -3610.8813516 -2071.62025221 -5264.03934791  
-16353.7804209 2799.95216332 21720.8589225 -3748.27334122 -806.562764047 -17071.4422213  
-13872.3980426 4272.02626037 -4540.42422023 -2816.64864374 611.87077936 -27209.0845888  
-7407.23196244 6479.00090553 -37626.5897 -2177.09063075 1986.45691519 -37062.4927673  
-2431.07942167 7212.59263086 -69797.9738822 -1528.69502605 3279.47634948 -41956.6063611  
51.0687573051 5128.87631427 -98836.0892792 -1074.07827078 4392.14581031 -40634.1626059  
4039.58487895 3430.56279106 -125152.477643 -880.852552928 5668.67305224 -38037.8713157  
7529.74414908 2099.53110773 -151895.507663 -141.240723079 6651.37317627 -33670.4215623  
10064.631666 1220.84070717 -177349.853323 430.481293251 6744.82028513 -27211.9021731  
10943.4409892 84.1633405608 -199282.769216 673.644730054 6015.68459572 -20047.9691593  
8284.15428438 -3459.84592807 -217930.18491 669.037707851 4046.0466566 -13495.3501501  
2541.83064069 -10834.3290501 -233326.748113 712.80025674 -449.938469757 -9648.07839067  
-5062.14178022 -22727.0585618 -241321.18371 1186.51472421 -9089.72046474 -13092.1545384  
-681.383874198 -33318.0346387 -211382.462936 2457.18269809 -20740.2564131 -24585.2175231  
-4446.54288838 -22534.9488192 -241907.468268 -1216.66920179 -9037.02956653 12618.5811015  
2967.13488856 -10568.774394 -234112.283599 -721.117704652 -387.794057646 9120.29035745  
7735.77412514 -3578.78372421 -219376.064013 -620.095050343 4206.93891201 12692.7280087  
9526.37909828 -403.172097952 -200849.926314 -587.614332353 6379.26016171 18744.6582966  
8093.63984695 414.996399989 -178180.28986 -341.50526269 7369.04873866 25052.0504147  
5936.87537846 1354.27542965 -150962.055043 152.324797037 7415.2323131 30603.8198223  
4571.4518893 4357.5453086 -120508.882533 801.17000682 6487.3869873 34884.3066305  
694.883250818 5646.65639928 -92318.6472308 832.204091243 5008.23924092 37638.1600148  
-1498.36685292 7419.32329179 -63142.2599017 1438.21182003 3671.09280263 39590.4904428  
-7127.35390333 6667.41042846 -32882.8717191 2254.63877305 2140.06233913 35848.4013354  
-14424.9601195 4543.92653256 -3873.78452934 3046.92722298 680.399043971 27404.3414663  
-18176.6980498 3444.20582016 20275.0518707 4021.7924105 -721.919931501 18164.3873049  
-17568.5837966 1063.01262749 34448.8292617 3614.20401126 -2047.40793521 5933.58086081  
-11710.5078637 429.817389958 38082.0418236 2246.92242531 -3028.57873523 -3322.62583609  
-6889.92955711 -576.236821069 33842.2082988 355.95680901 -3353.60739951 -9530.2645903  
-3771.0672401 -3322.65832549 25913.7324123 -1542.86889528 -3044.16208719 -14402.3060434  
453.510229275 -6863.9871087 17696.8545172 -3478.64197534 -2345.04041638 -16527.8200665  
95214.4017459 17460.8693391 -88796.4101352 -12326.5635746 -7834.19353421 2004.85418215  
-155681.13268 -101630.126514 -451278.677713 -16785.1045574 21282.6154703 121778.857323  
-95343.2611282 -38745.8539988 -336994.917492 9885.75919966 13049.6901086 -101968.573443  
61204.0187292 3374.08855776 -184487.048482 9176.31480227 -11048.0020719 -26055.1865647  
59329.4906149 1252.49494443 -187045.233312 -9250.10741711 -11678.2208349 26761.2361298  
4357.18330123 -756.675555844 -205444.241125 1132.11722713 -2213.72117664 59721.9210834  
-4220.70275478 1563.17873078 -226947.286588 3614.24827819 -3269.26215035 58148.1714886  
-10690.6791585 3718.13620734 -306155.531606 5270.47944982 -3056.61088288 62469.807392  
-45927.3573638 -8437.62113126 -304159.080235 4832.39358431 1742.62431588 80042.9604456  
-133156.143079 -59055.8784062 -338813.23483 633.720977428 9360.36672295 70741.3140884  
-87751.8504712 -21793.0825311 -261021.14425 -4891.65331547 6731.20614621 -61163.1719697  
-45697.0070057 -2392.41253865 -265476.35078 -7598.98933107 3868.53940816 -51205.7317669  
26811.5229301 -40542.3363635 -301153.769121 24269.0971544 22203.7474427 -163013.98923  
89238.1525969 31510.0493012 -85642.4404256 -23781.0946285 6106.88261683 214670.744451  
24337.9942473 -37037.4735236 -270432.590095 -21661.0875852 15852.5178428 185175.146851  
-1710.06232446 -19201.0306794 -314130.707769 -17119.5590033 21303.4309897 91898.669154  
63350.1028888 -5245.28220038 -171933.645765 8678.13544316 -6345.06478187 -17773.6323976  
37547.6142674 1501.44501904 -773.66065473 1649.60466943 3699.49213061 -1208.10086926  
76380.6984298 -259.865807281 5830.38395642 689.831379542 3968.68992651 -4954.76904598  
73246.6324932 3424.45983867 22.6534556396 -3032.8450608 4140.08395983 6106.55581322  
77770.318696 12930.9514394 -20522.1071601 -6618.03918401 2451.32504233 -657.197328762  
62443.3384107 5819.56473374 -85927.76919 -7717.64762822 -1033.64592445 -4936.00416031  
-2396.77410397 -14618.282879 -201960.277496 2912.58451881 -8328.4957957 -17970.5599131  
-9252.01037575 -15060.5254707 -174549.63476 4177.24128862 -7754.97576863 -15677.6386785  
-10136.6555828 -12925.8140785 -145336.659809 4598.1663562 -6722.97295525 -9358.60715403  
-5934.97925976 -6728.79529596 -113688.48274 3804.91016627 -5198.19294189 -2754.62450908  
-4346.68211171 -4853.94767554 -73652.793456 2511.48035652 -2501.91497874 2639.43059683  
-2970.73953601 -3697.6482688 -36082.146682 1465.01425035 -138.876055843 5134.01210592  
-1513.18446635 -2070.89243062 -8273.45460028 660.657760639 1428.2807004 4045.0882858  
-462.515028394 -1445.75202903 6988.81948147 250.74479072 2214.59050374 2029.40950455  
-69.660305251 -1423.89111578 11582.3598099 -14.4550423976 2465.25561019 81.2318062497  
-274.61168941 -1556.99319332 6413.01030127 -258.319565313 2224.29424523 -1811.78942722  
-1027.99656776 -2131.69059426 -9621.60963655 -728.02538031 1470.1353504 -3841.89274671  
-2557.41641319 -3697.77615106 -38191.0022901 -1556.40109591 14.2800165636 -4636.24934861  
-3159.02716312 -4260.10624125 -76742.5809584 -2733.540389 -2276.23285735 -1931.87325396  
-5109.83157038 -7040.34483113 -116498.760896 -4101.88729279 -4747.27197767 3116.65390032  
-9469.77811345 -13153.2197847 -148946.160443 -4740.85249835 -5991.91772789 10212.727726  
-7507.6377832 -14133.1459002 -176215.006651 -4180.05163009 -6999.04094182 16002.4160532  
-845.861955641 -13669.5774059 -202508.841151 -2899.53386885 -7948.14509845 17506.1671895  
-8368.64624323 -3977.26437636 -29543.6086555 5013.52144289 2532.66903575 9830.45645284  
-23486.254826 -1848.04527845 -69400.1849045 4885.87820815 6617.08767026 -20550.2608731  
-47089.2359825 -5758.60985182 -90097.7324863 2704.76968875 8348.73221515 -60301.9898725  
-61454.8773531 5295.16919666 -67942.1710863 -497.668199295 9371.25135386 -102069.227168  
-82363.1645701 19833.4603954 -58218.6859174 -3547.983306 9856.37552712 -143007.753402  
-105359.124178 22175.277709 -97679.6017539 -4893.01838483 8979.03599177 -183230.876754  
-160865.95517 -25486.3421311 -238253.716342 -4375.72961494 7201.05852076 -170922.428609  
-149412.177527 -7595.75114801 -273335.375268 -2391.67418829 6162.2622953 -99377.3880956  
-145915.143536 3946.53517608 -280225.35139 -259.626707896 4853.30697471 -14566.8416885  
-147703.665158 -2414.34392995 -276721.808572 1611.37102546 5374.31817146 73768.1918529  
-142403.654321 -11480.3621523 -236094.52503 2809.16429477 6349.58164465 157758.837724  
-90068.1171586 27833.4456392 -103535.398657 3112.06743523 8091.79285318 189749.455429  
-83216.1303021 14343.902767 -76243.041352 2105.35505978 9910.78510236 158782.989035  
-71007.9001511 -4871.96570027 -89395.019444 -96.6014528062 10410.5795922 107272.408878  
-40966.2978994 -1569.85325939 -82184.390613 -2850.14556034 8340.42653611 56459.5904647  
-16511.303769 2046.48246347 -57428.974585 -4946.2855368 6335.48445841 15561.0916679  
-4317.75173085 -2380.33223827 -21370.16497 -5095.83489436 2081.39124943 -12374.6920083  
-6626.25087246 4530.2972107 -46815.272197 1965.59418681 3230.15659929 1746.02398605  
-5200.36017334 12062.3735397 -61019.4126873 -2131.34265935 3179.67568642 -291.792359612  
-16060.6772419 8999.48671141 -78428.0279781 -5437.3895598 2613.06239179 -4934.0338051  
-25870.1816638 5142.84611515 -88828.211813 -7207.35793032 1192.63453133 -16992.3053671  
-23991.7667952 7498.87340848 -92817.5040042 -7003.18540572 54.7529419357 -31621.7245045  
-19481.3041827 6806.21542846 -106398.964541 -5715.96903544 -283.429772571 -45822.1399351  
-9541.68642503 6245.36707097 -116688.716852 -4119.84084611 -205.311033258 -54601.2414169  
-3067.29366895 4476.34699769 -129075.103498 -3056.3477831 237.509295702 -58644.7351859  
2008.02038955 2545.88830406 -142966.062245 -2182.82401283 822.769908272 -59431.3509184  
6171.57711487 1385.79338291 -156034.071415 -1183.04053834 1597.18945771 -58618.0568994  
11270.9380081 1032.79817489 -168069.578026 222.630458663 2367.09169383 -54474.39507  
18320.7546624 1544.4795064 -179665.199427 1369.71782076 2614.64105882 -45518.0000795  
18914.3616397 -180.450632314 -191974.288965 1920.09864659 2886.12046824 -34051.6129879  
14437.9305243 -3666.20644959 -202455.832733 2207.87266462 2142.46784101 -23417.566605  
5107.17489751 -10066.7182208 -210065.177626 2455.03088164 -1168.75232977 -17559.3266311  
8185.34508736 -8126.84461806 -209451.078897 -2436.40917013 -800.035508766 16839.3214069  
15736.4533222 -2399.64985395 -202248.120895 -2077.39040627 2480.31991595 23245.2664749  
17666.325819 587.22884534 -191136.36954 -1650.63744733 3335.19375642 33233.9726941  
13772.8630633 740.9561494 -178072.573541 -921.733123236 3302.51135145 43612.4728114  
9077.416013 899.697793539 -162721.075451 -1.76936999568 2987.40006412 51327.8287142  
6123.32978681 1929.05706972 -146917.994307 1012.03391783 2251.47993304 55383.2744357  
2187.77686452 3323.90931324 -132597.243734 1954.22943143 1364.00890768 56901.603714  
-3849.50249291 3541.17287356 -122429.430781 2944.60936085 470.349818077 56259.2304818  
-9879.93910528 6425.44649386 -112195.534689 4282.31689707 -8.65642520423 53282.4198566  
-20010.231365 7694.36528867 -105281.721024 6140.47772546 -105.075533983 45291.3227405  
-29097.1185817 5529.5071061 -98300.9039972 7441.48349709 447.368618296 31368.3762223  
-26686.1435146 8332.49888663 -88124.4978393 7271.29010879 1500.55199622 16651.649591  
-13316.3189385 9400.18264193 -72513.7096733 4741.97187468 2382.104659 4750.55254101  
-7482.9375437 6636.16790842 -55206.6840465 1230.92191427 2705.32860794 -1839.67349104  
-7422.24462414 1475.35553465 -36821.6293006 -2257.2470388 2563.63560329 -6858.41615054  
68107.2651717 -3335.57526707 -167464.957874 -9405.72528438 -6644.06445868 15689.8058362  
-12937.7892545 4819.67229411 -253862.712279 -6487.37614544 15942.3311642 75277.1719939  
34158.6052269 8144.50749681 -244133.805171 8776.08279502 17833.9550669 -87812.1361696  
47123.4078731 -246.929202683 -186797.623128 4657.10658378 -2749.6367037 -43119.2266382  
58894.5946478 1958.82011402 -178749.191555 -6506.77317392 -3356.7519292 35203.6406508  
41590.8353506 948.004870323 -193084.702995 -4617.74712381 -5100.04916295 49359.1600428  
7060.58024374 -6901.23785033 -218033.86651 -1437.73678305 -5693.49460045 49690.7230864  
306.011125638 636.331538783 -216000.824868 2432.25320864 -2738.92411997 57964.0592315  
-10556.0820819 2776.01689316 -232474.454855 5165.56868716 -3369.91800487 60975.9401504  
-26201.3161506 1561.4966727 -231468.148397 6790.73590834 -2374.22898307 63401.7548704  
-52997.1310498 -5342.48083103 -227921.175977 8274.39767212 555.900363022 57364.5628573  
-77080.6607771 -22047.5250613 -236206.366298 7949.71888113 5946.84170284 40061.5874728  
-21875.5652211 -186.817853302 -207377.710989 -2084.38949195 11038.9315315 -46629.3540193  
-73890.7550373 -20661.3844715 -219473.972024 -7819.17687396 3657.30113594 -46206.2622343  
-56217.5452389 -12293.0606961 -239566.96459 -6490.66455916 299.598557485 -62646.8939799  
-46339.7078217 -14428.8445135 -263540.827016 -5681.72626855 -2544.80944648 -73951.8981586  
1751.07092356 11761.9841306 -245328.186857 -5025.98528153 -4179.20301817 -64100.5604167  
1597.16011984 4327.42617473 -253019.645352 -3859.8651841 -4209.73431947 -55701.3969629  
4005.05121438 2908.62194936 -242174.013999 -2728.66699257 -4066.8874446 -51719.5443593  
6603.8852928 1056.53031158 -228745.001381 -1511.46516071 -4437.45993433 -50952.277396  
9685.795356 -3304.93599213 -218858.263919 315.684034727 -5306.36169566 -49511.3641549  
41845.8246143 5646.82660138 -187502.870526 2823.96580169 -4200.47276884 -52755.7350858  
49353.297297 5001.79229344 -131598.049122 13588.9275579 8936.93028356 -200694.380713  
6164.35797016 -16730.4655526 -200027.441245 9835.83364383 12895.6397079 -181548.214975  
76988.6948467 2237.34627635 -116148.417384 11024.8402799 5710.61671201 -136433.216437  
90503.3616095 -9488.51915826 -129887.14426 4148.87636217 3926.96680925 -47388.9769708  
93816.7656989 -13592.0817099 -137243.71921 -3446.56287196 4040.96967009 44627.8304793  
79815.2416357 -6918.09433332 -126018.764163 -11538.3486583 5275.58934154 133927.43409  
68190.7049831 10675.0171988 -118229.191871 -17331.6127577 9120.57957498 195339.07485  
35245.3917268 -170.049355101 -181020.586637 -14310.3414411 13756.7592727 195839.251475  
26554.2821757 -10815.7384699 -257227.224753 -9479.52532829 16193.3235185 103996.887492  
50157.6755882 -4428.79007056 -149212.867314 7178.56573824 -1765.42756437 -7857.48658635  
64276.8016736 8448.74849537 -82003.8414779 7563.80753715 -559.490192284 5479.94113251  
75301.9177633 12354.5892394 -18719.5862478 6185.86090087 2733.35580083 1138.2327516  
40328.5486694 -683.488989328 8779.99194841 492.592479246 3727.03442918 -2262.30099673  
41905.0763431 -1469.80464007 10670.0013849 -15.5023134069 3642.63868997 144.622738438  
41053.1921644 -529.745604857 8234.98547719 -585.402378432 3773.76767393 2286.99487752  
39129.9673951 1905.21836643 -2213.60225776 -1837.59688242 3711.27917247 1160.02956459  
39971.6119332 5130.04404484 -29879.0546746 -3814.09123813 3016.13799472 -3514.40278749  
45530.1574012 7204.80204116 -80490.2331851 -6007.66481093 1434.94839466 -5203.43908639  
52943.4341334 -6076.15160419 -148085.124711 -7599.20840047 -2031.48334241 5845.21079328  
8057.70266984 -8911.82035329 -184380.119604 4231.83072644 -1738.04060698 -18129.337025  
9052.34470004 -8772.14784568 -157043.841839 5392.92350311 -1962.79282548 -12226.126679  
11947.7059153 -4420.71503199 -121093.420311 5403.21524111 -1423.64633077 -3659.16036015  
16421.3192723 1360.87090188 -79728.4191146 4455.38894395 294.370171982 3090.39581647  
13308.3571133 8.5796016764 -33937.5841481 2498.1442482 1891.74473925 4291.21022319  
13822.8716592 -456.250225735 -4856.28476548 1131.80760779 2782.32424342 2098.67619247  
15276.6970042 -1084.64407647 8867.42273987 394.80231965 3061.63832926 363.701855036  
15880.5714026 -1574.8782074 12433.0780402 -10.3727955366 3138.09722192 47.2053008503  
15885.6570583 -1004.88848353 8295.23597495 -439.459165163 3107.92387236 -264.245875895  
15455.9790669 -87.3719138173 -6355.38476416 -1252.73296834 2822.12110649 -2282.30714476  
15648.3137133 529.816773219 -36065.5006539 -2644.3776072 2026.89787075 -4177.85676064  
20544.2246258 3021.06140303 -80574.2875406 -4729.5084242 598.135231561 -3415.46582647  
18249.6080386 -1637.99173536 -120534.187274 -5616.66460731 -996.910581331 3341.32291774  
11714.0833759 -8541.91371128 -161111.854863 -5402.30593487 -1324.6454514 13821.724094  
11159.0162315 -7288.68225815 -185809.72711 -4215.0154354 -1032.2924625 18961.315934  
-21106.3722109 -4794.8907023 -118131.252392 1824.52084244 8196.44020773 -31638.5215143  
-44209.5752469 -24641.2709056 -162317.83097 2223.41691889 10714.4336067 -84013.7085347  
-1890.6797407 19673.2319167 -96911.113243 3042.13119641 10135.8812855 -143359.581775  
57328.6362237 83485.0527487 -9404.76555656 7466.21998827 10333.9674729 -168324.382082  
-54512.5743214 -16415.5397338 -158046.190377 5405.58417621 13477.9245322 -201150.691681  
-52955.3484049 -21969.0822568 -191721.467744 5147.14401964 10135.1166937 -194239.325587  
-31383.288826 -10143.7524329 -202640.474557 3944.97524304 8465.58617129 -130503.209836  
-24747.4750575 -6177.22237397 -213558.943436 1214.26444233 7801.55079044 -33001.6758933  
-20602.2379521 -986.195051143 -205659.421592 -2771.92145152 7957.36066899 70706.2733368  
-16657.2697587 4218.03463234 -166641.612219 -5172.65571942 8146.42559479 160664.64976  
-3266.94319883 21130.3926479 -114135.19592 -6262.92286922 10604.6978236 204508.842953  
-19331.6734904 5143.94667784 -129688.677336 -6503.01080756 13451.7850039 188427.890135  
-19577.8195754 -1401.43644853 -133352.281446 -4113.83382502 12672.7895914 128184.827686  
-16825.5763305 -1098.98658719 -121141.247015 -2049.27623577 10047.4950383 68259.7540541  
-11819.3263632 4006.81355247 -95207.8875964 -2067.63126453 7634.9831477 23898.8028288  
-19171.1774419 -3885.00511986 -155738.791841 -2227.22613827 8374.33575505 -28712.6915238  
-37758.2717987 -10489.3256832 -158113.110168 -6098.42697085 5582.88203037 -18969.418403  
-50149.0814948 -9840.31644392 -160221.391522 -7969.43907755 2420.54653108 -29736.313381  
-37113.4542558 2596.44473292 -157177.099386 -8024.10021313 31.8676441457 -44395.2911753  
-29269.7947634 -104.170329075 -173870.996212 -6828.50120558 -1385.03946959 -56630.3035186  
-12565.8757969 3798.47846103 -180790.515227 -5186.35603006 -1990.82798977 -63114.1169741  
-534.850248033 5325.36346283 -185048.479738 -3858.58013809 -1808.3531162 -62941.4435257  
4221.13711441 3378.57193895 -187978.127669 -2757.706318 -1350.80625268 -62892.1197366  
7272.23805953 712.387382708 -189166.338198 -1660.91519233 -1147.84493869 -63139.470723  
17318.2529975 -448.112523222 -189845.013818 819.228826438 -1269.05957035 -60859.9724936  
27769.6922356 -1196.52521104 -188080.225898 2562.03744385 -4.98462401616 -51936.78761  
30957.5133365 -982.005763855 -186924.616418 3465.9564596 1033.76812264 -37532.9592126  
21574.8807706 -4940.80669084 -187917.240243 3953.85835994 826.412497867 -25310.3148554  
29754.1828276 194.480061241 -184656.242239 -3790.01995075 1335.5996499 26765.9854282  
30195.9049077 1747.3178562 -184178.179064 -2691.19414294 1368.39228471 40538.7883949  
20932.0577141 -204.6970888 -183546.933257 -1460.4915358 901.552964189 53711.9161249  
11650.4520669 -844.639086927 -179665.326244 -127.877393871 570.099016983 61191.5073785  
6118.76541957 249.535434986 -175906.024499 1188.17535998 17.7984684216 63319.7033013  
1266.2364531 1448.2519932 -174635.607572 2452.16866389 -675.567618364 62926.1458776  
-4076.95558659 2900.04554511 -173812.228338 3734.34919829 -1334.59018395 62025.1598089  
-12954.0414267 3156.18046759 -172463.757823 5232.56830336 -1639.16689977 60038.8224994  
-27247.8035625 1809.7059537 -169221.143233 7110.87561953 -1085.77815282 54525.4441497  
-45361.1196418 -1992.77061494 -165793.585346 8758.07442724 751.105836643 42388.7324711  
-49840.7063114 -7235.29266882 -164020.1798 8394.4401053 3705.05992939 25636.7654214  
-20638.0607172 4438.43708176 -140423.149375 5115.19566697 6120.33021034 19699.9035165  
-2119.42786114 8290.72766829 -118563.683168 1253.58346394 7465.51983168 22466.0523971  
40752.6113707 -5024.34561247 -180002.682757 5346.753934 -852.881779202 -28491.9609833  
-4092.30570579 -16945.5029605 -214556.930948 3547.9046454 13652.9546881 -91977.9639011  
-1301.1775916 -3535.79894706 -169217.834461 -746.116094889 11430.2414244 60434.3027299  
26870.7991701 -6849.40293507 -168452.917323 5514.02139044 -96.9360284351 -17511.8542747  
37413.2931463 -1299.99657973 -166845.893523 -5383.66699333 164.634239895 21668.4827932  
14419.1681797 -2921.23801752 -9618.00301 -7657.27667805 1226.59512183 -12725.7427161  
-50402.9396095 -16168.7202071 -202824.208895 -4797.59553182 6808.26556902 -42321.8400047  
32145.2672675 -3676.85719923 -132102.649862 6215.22645534 -189.375899419 -4406.95094437  
41949.6687682 6495.62841148 -79806.2446774 5865.96720908 1496.08056577 5198.15162828  
37359.5621152 4682.57242177 -27502.004317 3604.87246794 3064.51545878 3651.21130565  
43585.1657945 2145.37699115 -125812.376941 -6405.35443971 53.7866891208 2141.55547642  
42266.2492618 1387.83852086 -181335.768133 -3995.17813972 -795.715045026 41649.5664677  
28019.3875602 -1844.32916306 -191725.671086 -2407.86644816 -1424.75867331 55825.9800593  
11514.2139548 -3104.88138767 -198757.366322 -552.426889353 -1859.26237892 60747.0334767  
5838.0243743 -12312.298272 -203670.179969 -6091.87973027 14171.2447891 123744.98855  
38907.2573969 -15714.5799544 -187808.939146 -7556.48938097 -1971.18970258 25981.5119325  
14370.085623 -4567.77489985 -208800.145959 2289.22087824 -4630.52584679 -44264.6571026  
-23425.8867037 -9387.9804328 -218678.334872 1804.42714272 10983.1821582 45160.7041393  
-653.004264128 -781.747279881 -258056.555669 1939.85915197 -5405.92618701 43684.7651558  
-5395.0010853 -2373.12674055 -283952.606502 2767.25893599 -5700.92220835 45066.6721094  
-11413.8324636 -3562.12325951 -306902.471366 3798.09865508 -5357.59768548 50623.3881685  
71227.5630009 3410.20322537 1311.37850158 2632.93090905 4120.61600581 -6215.21730688  
78454.2724294 285.046469674 5579.57695486 -886.919373743 3985.46573946 4961.73625653  
2245.05939962 -1385.26646076 -234335.792555 887.937104124 -5427.64130682 45183.0386464  
114051.369635 3633.98729753 2915.38241004 804.689559994 2650.98640874 -5092.14818036  
1999.72248529 -14132.7792183 -234954.662247 -653.106683145 -7522.53928175 26669.4755964  
3083.49254451 -4010.101184 -264800.940174 211.222318772 -6811.59073976 21337.4492587  
-1164.80013503 -3808.78225065 -303020.004532 625.696993688 -5977.49255841 21031.5710898  
-5015.7660426 -5674.92708712 -340592.418719 927.147788607 -5527.50320085 23474.1934034  
-12244.5564447 -14228.0817892 -384954.616591 1213.72120523 -4331.45599635 28995.9270096  
-23479.5213856 -31590.3876603 -433499.146298 1287.858921 -116.179772121 41963.3844992  
32757.2540003 -186.290839926 -381124.28396 902.545423687 7188.5621421 76310.5423212  
13319.5877987 15861.4368109 -311645.118993 -1681.63875271 2813.86986964 -73143.7874959  
6459.55770533 -504.657435909 -357449.255852 -2233.90945565 -1989.77553219 -49033.7222959  
879.123693634 -878.20538676 -340310.842683 -1629.96161437 -4370.94217619 -33329.5685014  
-215.05236437 -1951.13651963 -314799.356058 -1140.65274078 -5169.31628468 -27530.7629379  
-308.617161491 -4447.67217275 -287851.515572 -571.426801167 -5768.24994902 -24302.1677485  
5307.12074823 -3411.38221988 -253474.697973 68.7752802877 -6819.897638 -23572.4230801  
6975.60966391 -14478.8855333 -229813.427106 846.866457368 -7569.79461621 -28754.8036328  
171130.175809 72797.6582549 -21025.263338 18692.5116319 4588.86929078 -156818.979858  
156317.732751 -6400.90783661 -79138.8729424 15603.5825055 2593.73101485 -91369.9511135  
231398.689615 -7469.73231416 -75412.960615 7340.27703905 1346.17163086 -33246.5345499  
252492.376707 -6506.71087621 -75969.3626019 -1962.28705339 1220.92997429 16295.2596692  
226994.353623 -1649.77145136 -76164.4696953 -11154.080425 2142.50885748 63442.5101096  
162201.621429 3734.12251687 -73176.5633703 -18999.7927361 4120.56398745 104040.37026  
179475.13582 79453.9743232 1339.93407425 -24587.601254 4139.02030255 150280.134084  
662.221386671 -69316.0122808 -340102.357696 -19300.0397301 12241.4370507 161360.01791  
90911.9543548 20373.4874794 -89636.2715229 6694.68921359 -4114.42090761 -1959.46182925  
116321.041078 30838.3620145 -8690.30893031 6328.19266972 580.566887501 -3727.0169405  
114607.271837 11673.8210393 -3419.09604932 3192.09584022 1473.63815778 -9744.82156195  
85556.2474238 -1099.52001867 5814.69503985 -25.9497014386 2458.46407171 190.36018118  
117175.63981 4109.73318655 3908.53255348 -25.2909674713 1522.44868678 68.6825497906  
119041.571682 7493.96063428 3433.10044507 -970.755014774 1483.02821561 5722.6427927  
118006.408229 14060.4689286 -2025.85115205 -3365.54994876 1335.08850958 8979.89992547  
121308.553875 34441.8470492 -6191.3574536 -6625.31665378 552.941634189 2582.72182538  
-35606.6609273 -51276.514923 -194564.844839 1654.86812103 -9068.79625647 -23608.7349074  
-39531.6642914 -44634.4314586 -166930.456264 1647.99793278 -7971.64886442 -14346.3592928  
-33224.7859718 -33231.0686943 -137971.894586 1192.29621284 -6973.46914534 -7380.06968824  
-24321.2101958 -23154.3180623 -103850.301474 922.580978726 -4980.65420232 -858.783091314  
-18368.5253057 -17228.2320459 -68190.5582521 681.003678735 -2740.60835043 4077.58654167  
-12184.9344194 -10579.9743852 -36028.0520235 403.851474345 -1021.41962356 6104.3036973  
-7894.19026009 -5358.09044557 -11831.5275204 170.941865374 180.695414298 5226.99427988  
-5121.91258952 -2128.92266234 2828.50646404 45.296468824 876.100637207 2873.7284268  
-4241.26198297 -1154.37156945 7502.79586444 0.691039871081 1103.35504632 132.467687928  
-5263.27252222 -2248.26142247 2513.74257816 -58.3202646538 882.410056089 -2627.38760765  
-8141.50525078 -5573.22311769 -12461.8802502 -166.754382149 198.939094799 -4782.07422058  
-12525.5281579 -10863.5248489 -37208.8734309 -420.709569159 -1000.67934317 -5632.873249  
-18695.1715083 -17512.7046233 -69654.4710805 -724.532256656 -2712.52051018 -3729.46516025  
-24737.7627165 -23333.3100549 -105471.242594 -950.702641179 -4906.87817755 1477.16381195  
-33649.6951695 -33851.7430117 -139938.274795 -1268.6739142 -6846.54445238 7702.6393255  
-39751.8207247 -44836.4054917 -168599.920834 -1657.07942325 -7839.20590075 14664.0466902  
-34842.1534093 -51024.322573 -195042.604787 -1668.00898647 -9009.2753567 23373.3065778  
-3012.04004384 -45510.7207974 -215250.277666 -1296.8376589 -10048.1659803 25949.3450354  
12418.4624214 -13477.2211764 9311.9650442 3260.17025834 -730.914150762 13106.2321541  
16749.4725717 -3003.18197895 -11312.633408 4395.9770759 771.435634698 13246.2119658  
12663.7149158 7311.01380379 -29159.8699007 3198.71278939 2087.37299835 -443.477071539  
-10767.8150194 18667.413841 -42706.3188581 -608.753113837 2600.9620641 -23913.2846881  
-65194.7462139 25169.0337835 -46685.1543347 -7253.76856401 2935.04877204 -48152.4772131  
-154214.800848 18945.1367567 -60450.4044402 -15203.5380299 2678.13641995 -76353.06672  
-170157.58195 74274.6794092 -29865.3569573 -19774.342479 220.010383803 -119763.971609  
-325096.031653 -40635.489114 -325777.380909 -18127.4330721 -3588.47408129 -113018.19185  
-317516.967007 15730.1631024 -304358.439732 -10981.6752445 -6001.92378564 -51424.7672241  
-349353.718801 15338.4257415 -318435.794614 -498.484360999 -6869.01360412 -3512.33595856  
-319030.685924 15607.7278594 -308231.506229 9931.37937111 -6359.53883174 44255.4035826  
-318511.730429 -37672.7272148 -329040.553383 16972.5101071 -4070.74121542 108273.768001  
-169316.453154 70052.551538 -42394.4406144 18569.6903645 -85.1215152309 127888.359442  
-158649.693261 15114.7858873 -66207.0239205 14240.8167761 2552.06688982 86419.718142  
-76541.5024561 17251.4545381 -56703.1951445 6845.39712173 2967.69478745 52924.198064  
-15963.4822359 16254.7093925 -45347.9068119 529.880768518 2682.55563285 24852.2598732  
13003.1977351 7486.58945911 -27606.15748 -3209.35985523 2075.06255748 -160.532245264  
12961.1780197 -13123.1296915 10695.9302395 -3246.50093378 -767.212535042 -13239.9248193  
898.235837554 -8755.64463423 16205.5737998 2142.44117067 -1240.26607587 16360.8602806  
-4805.71214054 -3951.66749576 22645.1705029 788.442210335 -1557.51409426 14020.8551271  
-5585.89564173 2298.64121221 32332.7819332 -421.042383878 -1714.98352874 9034.29581657  
-14577.0936899 2335.43271828 35695.8043429 -1509.0645631 -1598.13514541 2870.59264012  
-18403.1519244 3902.77356048 33728.4038901 -2262.55171406 -1147.15360523 -5983.60860144  
-17729.6445865 6849.23822852 19820.0234249 -2397.70131476 -431.740079815 -17880.5798613  
-14496.3570144 7807.53077863 -6289.35023035 -1919.60557909 408.427914385 -27368.1714134  
-7710.96733521 9359.50432007 -38820.9592759 -1536.00307199 1344.78428508 -36330.8511901  
-2524.28426888 9718.40181238 -70937.1036907 -1040.57859773 2261.97240914 -40255.246234  
-150.902043036 6751.49378219 -100264.469592 -687.583827782 2989.91838337 -38328.9845138  
3478.23646913 4018.14862833 -126963.382323 -533.418884849 3729.10865673 -35425.6004195  
6796.85400137 1797.51041078 -154252.765206 -107.33788445 4273.16194933 -31146.734958  
9462.58795779 335.908070539 -180117.711414 228.299939231 4296.25798153 -25118.0103933  
10709.0768622 -1216.68403104 -202320.664317 390.47716422 3741.49111476 -18529.9765807  
8770.26216319 -5377.59436035 -220440.330412 446.894425015 2248.99624332 -12699.1621858  
3742.79330711 -14594.4464981 -233885.495906 549.089643578 -771.360023582 -9734.35703153  
-6194.17328602 -33756.0580993 -243392.090066 858.778337007 -5521.24477262 -14068.4186729  
-3161.58447511 -45599.8116441 -214755.524082 1309.49412449 -10061.4358725 -26159.2086876  
-5554.99294466 -33542.1282893 -243945.586652 -866.593898647 -5500.73896845 13554.4335966  
4226.4083443 -14303.5722195 -234617.178454 -554.94352111 -738.964833502 9201.0153544  
8248.58771574 -5555.11569245 -221855.688953 -420.693857037 2337.91717324 11933.5515289  
9383.41396523 -1770.22968948 -203806.228973 -334.701380818 3940.15474885 17329.5159039  
7593.20669879 -564.89643315 -180872.246519 -171.508467213 4631.1801257 23137.8531789  
5319.02240625 1043.31899693 -153247.404324 126.253442107 4686.94792904 28324.0576126  
3997.89474973 5066.90135357 -122339.256742 514.478361619 4181.79629437 32489.2047442  
460.457815517 7553.50533489 -93839.7822786 593.311571371 3358.1006752 35562.0769551  
-1764.97547543 10050.5737374 -64379.5346676 1020.18077051 2510.92925829 38048.7825623  
-7518.77384821 9695.17551399 -34064.9370675 1600.30031473 1435.16493035 35259.0529363  
-15169.1428875 8149.12249229 -5618.76417525 2034.04169941 453.542924146 27566.87662  
-19804.0620687 7352.60545145 18381.7720543 2559.0601637 -388.729452575 18949.1216245  
-19492.3932831 4382.30619695 33202.5646457 2288.07253284 -1126.84959374 6605.26966044  
-13369.0333574 2524.41736195 37671.8346359 1474.85603245 -1668.17884302 -2974.56796317  
-7864.5843024 -100.646177085 34167.3548163 326.735614172 -1856.55047041 -9538.72144068  
-3680.12796187 -4398.68299504 26564.1032779 -883.902448881 -1709.86767122 -14701.7795871  
1655.37552394 -9312.17125226 18388.5867954 -2127.95471666 -1332.97281548 -17021.8804267  
95924.6688401 23184.1909599 -88057.7669096 -6892.38496483 -4349.38156466 1797.70829005  
-160370.230086 -128210.91012 -454980.742951 -10432.4838069 12202.2856499 120322.446374  
-99685.3344515 -60582.2997196 -341526.776266 7321.07993097 8144.67114674 -100303.438136  
59071.0858033 2235.23727654 -185922.710876 4888.70146054 -6202.81878069 -24788.8377269  
57425.8602915 180.464566506 -188175.221768 -4893.31504133 -6490.6312889 25483.435022  
3718.71725916 -875.459207295 -207476.131915 627.008348659 -1625.6514824 55522.7793489  
-4331.00738253 1467.11886658 -230882.256691 2211.31554059 -2133.33635081 55735.2529293  
-10223.5042402 -94.7322996038 -310089.968539 2861.09236215 -1092.02080617 63834.901466  
-46007.3930776 -15621.5390512 -305853.815372 1925.74685658 2350.62331157 81506.6268885  
-133990.267405 -69994.5705082 -338232.146832 -1391.06374894 6243.89937308 70815.3650859  
-90260.1766812 -28917.8360607 -261585.780222 -994.02981075 4852.74010143 -61362.864935  
-45476.8396234 -6312.36926807 -264760.907516 -3570.62150974 3222.31995134 -53890.9256783  
25467.3973012 -46229.597625 -295914.975772 13994.8679901 11230.286923 -157939.349695  
90660.8884655 32378.6404036 -80308.2496396 -14054.3030493 4256.65608084 209121.929804  
24280.4613509 -39372.5490152 -264683.857748 -12548.3685547 8402.16600812 178993.204283  
-4625.1302766 -34963.9768006 -313685.559162 -10808.3904016 11426.0875614 88906.6824255  
62499.322119 -4201.28123736 -172249.804243 4922.85053868 -3694.56173914 -16973.6735883  
41268.8870391 2114.41234448 -1061.73735224 1303.62679993 2123.08944455 -3057.71845508  
82330.6288678 95.9018161671 4705.3947111 686.897206363 2452.79270772 -6225.76782158  
77050.8594012 5993.86811451 -278.015775128 -2365.20381142 2191.55422044 7945.80601161  
79313.3041094 16779.3612384 -20597.9773869 -4505.60854072 983.223660485 734.286855557  
62671.3271 8738.92642893 -85793.9304771 -4801.21314749 -861.036780202 -4404.9703307  
-3921.98239018 -24760.5882261 -203933.271912 1760.19257854 -5113.32665749 -19353.9557605  
-10885.4348822 -23695.0666253 -176063.435356 2424.8710009 -4699.02228279 -17286.3227609  
-11486.2380843 -19470.9791333 -145864.567564 2603.40958376 -4053.18264533 -11219.5740961  
-6514.78574319 -10925.989665 -113259.212177 2198.57158734 -3103.7814098 -4883.90983709  
-4351.38420602 -7511.1133137 -72537.3857732 1579.6477845 -1488.65783231 558.842244673  
-1853.16633531 -5336.24881234 -35707.3207811 1005.12015015 -94.0101173555 3123.62553179  
453.857607225 -3078.63453283 -8681.35790381 481.094005268 866.904348552 2440.54843078  
2104.19655495 -1996.70637016 6086.52547553 184.419671167 1370.60536044 1158.47436203  
2670.9631663 -1850.06363697 10489.1427104 -7.23892597887 1534.580783 117.215366609  
2303.17540799 -2133.15552291 5532.87155588 -191.321550408 1376.76086791 -877.299213295  
974.955665145 -3146.39801715 -9967.29419106 -523.791628938 882.892274533 -2175.00426896  
-1471.74534268 -5337.79078298 -37788.635969 -1067.35253406 -29.4130227246 -2598.09707  
-3270.93068777 -6930.41952351 -75400.5287567 -1704.88023967 -1410.67373129 227.480881887  
-5779.90666313 -11346.9820255 -116055.435851 -2350.28336454 -2898.61912184 5239.12258267  
-10847.5364386 -19677.2727107 -149598.427624 -2690.10571605 -3699.13548405 12015.6746755  
-9102.23719115 -22574.4576119 -177810.744307 -2436.68309135 -4341.17331079 17503.2557164  
-2339.88491832 -23662.2422299 -204489.678346 -1750.32683757 -4934.49035419 18811.6528555  
-5886.53271002 -3787.63133014 -28729.8291782 3030.44504325 1551.5956653 11320.9886827  
-19197.7883998 339.762580741 -68019.1256359 2941.65424587 3953.51261596 -17040.085019  
-43221.0031093 -3062.72163518 -90208.5751162 1421.90362425 5027.13330447 -54721.532183  
-59485.9566203 9041.58697451 -68729.6915756 -1077.13309448 5367.60544979 -94283.5748699  
-82014.2902421 24364.9578901 -56985.1744046 -3623.01793907 5193.40585003 -133798.029588  
-108443.404714 23833.9924034 -94767.3082864 -5013.48849403 3477.48686289 -172968.561236  
-171735.02251 -32178.9591203 -239571.34735 -4727.55274585 1378.0635547 -161357.912889  
-163145.306728 -14635.7734583 -271499.475819 -2800.65061665 -478.125289167 -93136.5151322  
-161102.252744 -2780.7110899 -276078.015522 -368.816743331 -1356.40023135 -13438.244191  
-162423.802206 -9370.18145198 -274223.866146 1994.93210451 -1091.61975683 69327.3303621  
-154097.132003 -17974.1000743 -236001.298871 3730.30580107 579.28528085 148873.571601  
-93186.835029 29117.0554573 -99030.7811191 3948.64243345 2838.78123974 179234.642102  
-83166.9641019 16465.2895335 -74594.5295708 2700.91448189 5121.43256547 149047.388656  
-68746.0794541 -2371.01398282 -89873.9155322 607.309232165 5891.56963577 99322.0887378  
-37126.0307754 1446.02779955 -82237.5455791 -1602.28554144 5088.15953059 51021.1498539  
-12688.6454083 4379.03518705 -56561.5357966 -2978.89486272 3836.84284179 12347.7071514  
-2020.79206183 -2269.9874169 -20730.8515796 -3045.82011161 1287.99581129 -13718.7865301  
-6678.46801752 5110.23597361 -45662.1277643 1241.08997541 2083.54434005 2851.36638142  
-7590.88877853 13103.4103857 -59861.3432526 -1115.97606791 1989.74507798 -129.640761742  
-19265.11835 10367.2379372 -78385.1721824 -3084.48847112 1528.31252064 -5831.17428079  
-28996.2438852 6736.3248738 -89498.9038328 -4199.81801308 723.543117501 -18504.3974517  
-26037.2105661 9072.41926923 -93699.5042161 -4161.05701309 32.7088124778 -32687.0465301  
-20576.1007687 8521.58924458 -108198.298719 -3529.57948775 -212.14689875 -46120.4805282  
-10059.9453972 7473.44434559 -118443.665048 -2567.20301204 -142.88659461 -53296.5869294  
-3326.49057406 5578.90845013 -130857.773102 -1881.36010082 138.881379171 -56020.8047447  
1764.67543264 3456.60832364 -144614.962389 -1304.69585393 539.339941249 -55839.1681286  
5700.65495047 1954.58750001 -157666.774626 -664.604558395 1028.72863369 -54534.5174586  
10432.1137318 1087.77239141 -170063.881031 163.398861365 1516.35688395 -50468.4204345  
17472.1997306 1214.55613557 -182095.561831 837.264925467 1744.65492327 -42192.7257803  
18357.2547339 -851.504215881 -194822.992906 1173.33938805 1829.38442917 -31719.9958341  
14385.8744701 -5232.89374535 -205168.192623 1353.62282516 1092.77091814 -22309.0335956  
5938.55725017 -13440.5965176 -210919.502562 1507.50148435 -1136.51563995 -17795.8026577  
9080.49743437 -11266.1715989 -210352.807534 -1498.87173191 -924.021182189 16982.6505424  
15684.3794436 -3840.75774347 -205066.091471 -1273.18303363 1311.92572901 22051.0585672  
17100.7494944 -90.4814960945 -194111.276186 -997.360339949 2129.36361476 30886.1815932  
12988.5362299 370.179655819 -180613.849598 -563.505120117 2203.6071058 40368.9587622  
8393.03484584 1021.18834492 -164723.412916 -19.355662971 1970.89009034 47549.2299012  
5598.316544 2655.18549643 -148593.986348 589.654716253 1484.61924099 51548.9333056  
1849.43587886 4490.53860019 -134184.167466 1192.06205067 905.630359787 53477.4863739  
-4255.34216721 4829.2309933 -124121.873747 1831.28779903 315.998078222 53734.6700202  
-10440.8473158 7859.0423413 -113753.448216 2670.9391858 -27.8715609237 52063.8851329  
-21266.2162933 9372.38842469 -106889.633006 3748.76457909 -101.165636117 45715.9362198  
-31657.8821434 6750.32883349 -99201.0664968 4355.50476473 255.653728376 32488.6374937  
-30180.660322 9794.07106582 -88645.9882054 4200.3704381 897.193252686 18042.1825284  
-16589.0479605 10718.7436655 -72063.0171225 2777.67978632 1471.02131571 5460.2040375  
-9411.99482616 7487.15399214 -54209.9781881 725.949905292 1707.59987224 -2053.68816275  
-7390.71180884 1725.04958599 -35879.0672465 -1351.18665184 1620.54518128 -7823.40658831  
67521.5753547 -1972.11368848 -167533.905342 -5268.84852383 -3836.37498785 14938.4642829  
-15954.3632261 -6909.61496006 -253082.140496 -5044.21299761 9176.32239623 72540.9185976  
30343.6609765 -452.765326715 -243198.86811 6111.08977386 9920.27918098 -83757.8041914  
46100.5321659 -745.665994487 -187440.984954 2774.88607665 -1731.89825339 -40996.5280827  
58285.6822461 1777.72210434 -178840.981865 -3754.768427 -2045.30745127 33695.8668756  
40687.292679 31.6032341565 -193514.961428 -2676.12975282 -3196.79942891 47071.9754906  
6308.51616742 -7939.80285632 -218951.966754 -952.109269309 -3790.6592613 46769.5647332  
10.9764614931 710.329593966 -218995.605419 1458.75570408 -1897.10936826 54300.1147163  
-10578.8197603 2174.61005492 -236835.343517 3060.25440983 -2024.45051867 60346.494427  
-26597.3140443 17.6922008651 -235167.158585 3827.0567258 -1143.46993667 64591.0346159  
-55304.0137152 -9054.1191007 -230384.802634 4146.53386003 906.970093907 59490.0798061  
-80832.4992032 -27036.079518 -236909.82779 3196.15402735 3813.87883602 41252.3228496  
-24987.8914707 -4080.21671879 -206062.391368 -163.567803326 6675.09279808 -44771.3698811  
-79043.3025587 -24478.2962737 -221318.996466 -3679.50947499 2567.0442575 -47755.2505105  
-59491.1724789 -16347.2462837 -242893.219782 -3434.89609172 645.218293627 -64362.0215587  
-48391.3063977 -17016.5854373 -268287.606266 -3246.27117804 -1089.24210971 -74934.6970592  
1556.70434094 10918.0150312 -250166.303408 -3016.84464874 -2364.5064411 -64111.2144947  
1961.92791099 4386.04598696 -257304.978311 -2362.54361885 -2741.24125875 -54076.5079213  
4089.57198503 3029.51211813 -245590.253574 -1658.55781288 -2800.44561505 -48773.0719349  
6472.849254 894.858315831 -230830.526372 -848.993011004 -3063.08663704 -47350.5927973  
9432.72176969 -3763.00579594 -219605.452061 290.00348 -3559.67497723 -46156.6585992  
40341.2322423 4549.70311918 -188684.231472 1767.7501653 -2697.53175692 -50204.1354225  
49129.2161859 5874.89712533 -123583.897104 8682.09696551 5727.01606889 -192229.416177  
4520.30258104 -18319.4382257 -196549.726043 6229.96055064 7388.35202297 -172767.638624  
78334.6650499 3313.40939013 -105356.939835 7231.73227634 3727.81427444 -129669.002057  
92524.0137243 -9547.93388739 -118298.811547 2850.44081344 2692.64718295 -44574.4957  
95384.9608317 -14429.8127884 -126529.09905 -2323.95416554 2694.24265201 41915.7586482  
79591.1714129 -7647.18742483 -118454.279152 -7535.18193262 3497.97338984 127063.374798  
66380.2664936 10578.7102584 -113046.982825 -10690.7400005 5579.94676694 187103.757087  
33115.3882761 -2195.6349517 -178278.773639 -8322.56085499 7760.07459243 186674.280712  
23361.6285464 -16876.5648175 -255976.903178 -6408.72437207 8938.72971289 99103.9439166  
49391.9860627 -3744.97963335 -149441.507294 4244.55478313 -1199.00284715 -7702.1894772  
64509.6392836 11256.2416441 -81837.0716451 4719.44709383 -627.274399285 4860.46959405  
77021.2865938 15909.6334928 -18801.8412725 4254.69551385 1167.82075689 -400.407340741  
45170.7033093 -692.237494401 8019.81697991 456.504455933 2323.78853104 -3334.92802807  
47119.5435547 -1680.64484597 9779.45097258 -21.6794656009 2342.88242818 211.720395032  
45827.6092339 -459.914466194 7505.26531704 -534.494551015 2328.24077 3473.3576757  
42748.1595434 2643.09775201 -2483.6543171 -1437.78655909 2094.70864307 3039.01133799  
41985.4432286 6536.79787078 -29652.5886865 -2663.96753159 1457.90811583 -1519.5688973  
45922.617743 8259.0938587 -79885.5643504 -3793.63301553 503.751152139 -3637.54785669  
51866.9405248 -5371.58304421 -148621.68773 -4468.16238481 -1314.80385075 5744.99086405  
8378.67556698 -11933.7280756 -184781.795355 2479.9257337 -1414.58155961 -18752.975827  
9044.31727988 -11102.4996494 -156661.150102 3130.02037014 -1458.12306892 -13371.5646114  
12241.3987054 -5688.29742771 -120144.343255 3154.53976409 -1060.19374153 -5282.6542608  
16965.5941353 784.803106429 -78261.6313464 2690.9888544 -76.5019581901 846.012692584  
15143.0739392 -209.16728205 -33439.6682018 1666.68241575 951.460858529 2148.4400997  
16813.93973 -755.70734072 -5206.96429629 831.654377287 1622.75894632 300.503760673  
19057.9824452 -1460.88736657 7965.17848871 310.233533846 1907.05412472 -625.234075021  
19891.6019395 -2004.49530446 11329.2838214 -10.9865124868 1991.18146886 101.427392906  
19651.5043637 -1372.8193701 7423.8839367 -346.470251647 1922.17825405 822.248694108  
18440.7209667 -330.943264758 -6634.35724092 -916.152803141 1630.20127255 -423.033295674  
17488.2555131 463.737847971 -35522.5839265 -1772.32575903 1007.56300046 -2005.10015638  
21389.4428533 2858.42095161 -79631.198286 -2890.59733193 63.7921043895 -1251.78648454  
18505.8521333 -2560.08425414 -119373.025821 -3284.06444736 -855.114886336 4852.16854578  
11793.4458216 -10366.7774412 -160844.047498 -3144.94871978 -1085.64838012 14727.5679205  
11484.3209151 -9851.08423065 -186437.667129 -2472.6264094 -1004.31141052 19358.6567091  
-20433.6951056 -4337.55609242 -117231.425401 1309.72414201 4940.3894316 -28674.6042932  
-43931.557747 -25405.4464402 -162376.456116 1302.35201138 6379.45346876 -78009.178769  
-1653.68804405 20322.5287674 -96177.867585 1549.84169797 5975.12172529 -134344.440085  
55851.6213689 83774.4080362 -9436.57564345 3381.96648107 5671.29863406 -157890.958528  
-57152.817062 -18547.1440911 -155403.021985 2974.22544679 7012.47033638 -189647.285365  
-56312.7618468 -26151.9713434 -184413.427375 2896.16729123 4968.84133068 -183245.634732  
-35437.7790953 -14508.6212675 -191927.678814 2083.06574493 3475.40350167 -122622.775344  
-29221.7397488 -9878.92415981 -200443.238588 586.464157848 2872.28583622 -30737.294448  
-25416.5503199 -5022.39278408 -194426.103292 -1504.96652178 2973.18450197 66371.9102595  
-20562.5930645 856.591802492 -157711.294166 -2961.95611909 3535.38425098 151505.144322  
-5580.32031069 19725.3487945 -108672.006165 -3524.64528303 5441.11827117 193111.371449  
-19867.9930161 4951.50347552 -127055.599382 -3429.57096029 7401.57051454 177597.251254  
-19556.1148298 -2222.06875876 -133310.838163 -2292.8699217 7419.62596149 119888.955837  
-16411.4100831 -1035.81628689 -121690.334166 -1366.07795786 6077.74525929 63019.5467004  
-11224.4400093 5194.82767546 -94688.768895 -1412.89067823 4639.38571929 21217.0456108  
-21502.1751225 -4458.2396716 -155225.780531 -792.972403412 5012.46512153 -26988.2937754  
-41416.7230028 -11221.8669885 -158096.525493 -3117.42539521 3316.77803402 -19671.1162713  
-54404.5272309 -10923.4982928 -161568.649833 -4294.64081305 1579.43664037 -31478.2588264  
-39199.0166949 2206.80706233 -159147.155279 -4466.76921368 153.599215201 -46124.7018581  
-31365.3947315 -1071.46411831 -177522.406171 -3988.21867452 -789.168069346 -57343.3996185  
-13230.2199053 3714.12547292 -184300.413321 -3154.30429771 -1266.67796929 -62208.6696131  
-635.603012047 5757.50838552 -188136.878675 -2360.34991038 -1219.9940585 -60431.2095474  
4030.30469594 3826.69642639 -190470.553846 -1662.00787837 -990.675879777 -59144.3954061  
6825.17986579 910.548278758 -190996.750721 -918.093886742 -863.432816278 -58766.4772457  
16575.2419531 -543.574978221 -191055.407192 548.140637453 -888.620847693 -56830.2733643  
26932.8782213 -1449.49011199 -189411.451935 1597.30929808 -6.28601972273 -48660.4354399  
30157.3739489 -1530.04502167 -188764.109332 2124.56809358 590.050764948 -35393.722204  
21157.4875761 -6292.96411599 -189751.645383 2383.31454449 276.870982554 -24530.4051833  
29196.8153732 -864.401580321 -186856.731214 -2290.31592222 589.289971201 25667.2016793  
29323.9899736 1385.34459686 -186332.238712 -1691.43807528 850.359053971 38000.7683559  
19957.7990969 -495.515880183 -185403.415261 -973.210070206 594.707763116 50015.0940083  
10789.1078145 -875.682965232 -181351.41437 -154.930864885 304.767360127 56847.2692287  
5488.49406714 577.996499749 -177764.113791 670.71347079 -80.3496753971 58917.1991582  
852.936461902 1985.93159511 -176954.371765 1470.78527201 -512.047839188 59068.2211985  
-4445.04262482 3406.62835719 -176661.81749 2269.27366701 -899.026872653 59327.0350099  
-13496.6873049 3451.716034 -175545.272933 3145.16627451 -1035.4384995 59000.7421887  
-28397.8009568 1713.6361416 -171837.807879 4123.6751575 -601.996704145 55307.0225529  
-48118.087418 -2927.54386452 -167660.26112 4790.56999979 602.568140123 44237.6348707  
-54190.2100715 -8657.58923062 -165118.548665 4247.78523395 2317.04277785 27028.1253898  
-24853.9492277 3661.47598262 -140964.247573 2485.85609281 3711.32234585 19531.0867842  
-4457.66121023 8381.00497607 -118576.886066 476.659178992 4514.83529958 20875.1193538  
39793.8624311 -5497.25876948 -180811.198649 3202.17657243 -581.926023978 -27268.548158  
-6791.09179964 -19728.4427584 -213827.45246 2638.43903293 7967.1203238 -86582.3793812  
-3762.29301539 -5289.5870961 -169238.317114 -910.432898685 6710.98587108 56372.7256604  
26199.1028888 -7931.49319277 -169211.57745 3280.88261218 -263.301261079 -17477.809463  
36624.8052956 -1934.30105773 -167909.515161 -3222.82161473 -62.3726882808 21128.4560003  
17631.2502882 -2603.64571178 -9397.68834943 -4369.22484305 710.238583276 -13829.9959916  
-53939.6069475 -18427.4233876 -202012.743917 -2191.44329428 4267.45893505 -42471.3800389  
31757.3658103 -3825.5011515 -131849.97153 3714.70375903 -334.432582388 -5217.97140245  
42439.6955344 7373.84657891 -79103.6496126 3694.09331799 537.982107191 3541.15477587  
39460.7519939 5957.87760899 -27267.7527218 2515.64620977 1504.49134061 1592.58691834  
43015.1038997 2185.20215474 -125780.846227 -3802.7226287 -234.17451013 2844.97215329  
41647.8645388 1256.99838706 -182150.135528 -2478.46743948 -468.522190091 39475.3454735  
27203.908447 -2221.40187922 -192628.723055 -1555.45915643 -961.728302518 52469.2159753  
10553.0648459 -3566.28817312 -200119.344929 -442.039082701 -1366.7100978 56707.5035891  
3364.94549949 -15431.3849274 -203191.074421 -3935.24581356 8134.6027995 116623.358105  
37537.4544831 -15993.689315 -188541.445419 -4305.13351991 -1147.41830165 25222.6859319  
13513.3082277 -5499.92396495 -209400.680472 1471.93238798 -3238.18739898 -41995.2538233  
-26549.8402953 -13175.4870545 -217819.366795 -50.0920650095 6387.63199804 43128.2916768  
-746.73725399 -1181.38862235 -261432.724826 1157.95127455 -3647.89852655 40764.0776673  
-5284.78008441 -2997.44428169 -288696.71611 1734.33011374 -3632.49367016 43248.5135841  
-10824.6108822 -5120.92187084 -311858.18213 2317.05080742 -3082.86988645 50459.418155  
75231.5224899 5547.54862854 1003.8651043 2106.57627271 2236.676936 -8060.4272245  
84233.8429612 815.828503609 4473.69092492 -831.962972107 2435.61705336 6324.80615608  
1673.87723742 -2200.09280979 -236359.52663 440.942864117 -3753.91876028 41915.5214859  
117375.204037 6206.90848308 2598.11138721 892.073221094 1528.91538566 -5853.32255001  
1550.13178263 -14948.2160019 -235676.158087 1.09565689854e-10 -1.23208110381e-11 26267.9118356  
2768.19406082 -5002.86076728 -265767.843299 -2.02362571144e-11 -2.77111666946e-13 20925.6414306  
-1134.92452419 -4302.96658119 -304134.153922 7.85007614468e-11 -2.85069745587e-11 20655.405936  
-4696.886884 -5934.5581821 -341828.397776 -9.63495949691e-11 1.3972112356e-10 23278.2339807  
-11610.5933232 -15077.9464497 -385823.189222 3.60387275578e-11 -1.3324097381e-10 29040.8113304  
-22939.9245661 -34656.1477352 -433827.501362 1.11413100967e-11 -2.01396233024e-10 42042.0208504  
31459.9690865 -7599.48839837 -382373.72496 1.15505827125e-10 1.98241423277e-11 76040.3588824  
12795.4929944 11647.8575725 -312488.818948 -1.50021151057e-10 -6.85531631461e-11 -73142.181825  
6960.3420318 -2097.07931441 -358212.418277 9.85664883046e-11 -6.76436684444e-12 -49180.5799447  
1454.00756095 -1192.42778318 -341383.776434 -1.31990418595e-10 -1.8013679437e-10 -33284.6231792  
98.4725173036 -2095.78574489 -315940.889911 -2.02362571144e-11 -4.15241174778e-11 -27222.4617166  
-275.521257922 -4974.43148247 -288805.845236 7.84439180279e-11 5.76889647164e-11 -23836.2085872  
5014.57460342 -4387.77296186 -254335.902257 2.11457518162e-11 -3.47242234966e-11 -23131.4436925  
6568.66611495 -15090.5066942 -230472.003119 4.77484718431e-12 -3.28768123836e-11 -28354.0712387  
171233.031854 73288.7954794 -19094.1893713 -1.13175246952e-10 -1.49384504766e-10 -155634.020055  
156812.655037 -2529.88882692 -76422.4318881 -4.42810232926e-11 1.84172677109e-10 -90596.6131863  
231113.294944 -3897.96726881 -73344.2041608 6.35935748505e-11 -1.29602995003e-10 -32905.1866677  
251864.148597 -3264.21706029 -74331.7777644 -5.00861574437e-11 1.33468347485e-10 16057.8728346  
226334.791794 1850.92345264 -74762.3764734 -3.97335497837e-11 4.02451405535e-11 62684.4374174  
162068.079426 7059.48764503 -71571.1169838 1.06467723526e-10 4.48380887974e-10 103157.007126  
179050.59174 78428.2983129 1862.69791653 -5.1346660257e-10 -1.21644916362e-11 149439.575817  
-217.760619045 -74725.1988578 -339402.440937 1.80818915396e-10 4.6355808081e-10 160009.424317  
90899.243495 21901.1196063 -89824.9257791 7.40385530662e-11 2.82298628917e-11 -1838.53487239  
117049.497019 33571.1473723 -8477.6248809 -1.21360699268e-11 1.22764021171e-11 -3754.09167398  
115602.347836 13915.586451 -3424.75206403 6.31246166449e-11 1.04449782157e-11 -9944.71030795  
87568.4270943 -1122.87383757 5428.47433925 5.43831646382e-12 -6.12487838225e-12 207.326309766  
118338.544524 4817.03830292 3771.40657847 8.29913915368e-12 -2.44426701101e-11 69.1398066775  
120123.613382 8699.96515312 3321.49887966 -1.81756831807e-11 1.26618715512e-11 5886.33760179  
119007.831689 16401.4788336 -2020.56465564 3.80566689273e-11 3.96482846554e-12 9162.22539297  
122047.320175 37215.7824113 -5970.77857033 -3.85682596971e-11 9.12887543336e-11 2588.08940233  
-36089.7773341 -53945.1710207 -195126.858171 7.58149099056e-12 2.56505927609e-12 -24149.3299845  
-39851.2440101 -46619.4899626 -167268.585904 -3.12638803734e-13 6.59383658785e-12 -14920.2751985  
-33245.3516836 -34262.4456029 -138032.648156 -1.20792265079e-12 1.59730006999e-11 -8018.28742452  
-24469.4506158 -23926.1686943 -103249.809046 -9.37916411203e-12 -7.89057708062e-12 -1419.9958997  
-18311.8418081 -17679.5923509 -67807.7356538 -1.00328634289e-11 -5.53512791157e-12 3500.81640431  
-12005.6517412 -10903.8560839 -35829.973035 -2.35900188272e-12 -4.57767157513e-12 5545.26725861  
-7588.37078844 -5619.01957562 -11842.1634271 -9.52127265919e-13 -1.06132880262e-11 4785.08159009  
-4723.03164677 -2334.04477764 2668.15053073 -1.00897068478e-12 -5.14788212058e-12 2632.80157181  
-3813.20766396 -1341.15824909 7286.51908201 1.21147536447e-12 -2.09965378417e-12 135.951822911  
-4855.71484185 -2454.29522153 2360.52150084 1.58095758707e-12 1.09956488359e-12 -2379.07435561  
-7836.46012046 -5850.86246196 -12465.7161645 -2.47268872045e-12 -1.00164321282e-12 -4335.11165578  
-12342.8201523 -11206.174127 -36995.6055935 -1.79056769412e-12 1.6337153852e-11 -5069.85593226  
-18632.2583244 -17988.8781042 -69258.3224076 1.18518528325e-11 2.37676545112e-12 -3151.59991016  
-24785.2940246 -24077.0290842 -105079.485247 9.15179043659e-12 -1.11413100967e-11 2069.95568391  
-33751.9905761 -35040.7338071 -139955.773124 6.28830321148e-12 1.9134915874e-11 8335.37842976  
-40110.848752 -46930.1337351 -168970.269238 -6.19593265583e-12 4.24975610258e-11 15240.7100704  
-35342.5634348 -53740.0045776 -195622.844267 6.5867311605e-12 -2.47553089139e-11 23910.3228915  
-3256.59359249 -48338.8490278 -215768.410271 -1.13210774089e-10 8.14139866634e-11 26380.8085678  
12935.371717 -14782.1445213 9479.15038896 -2.75349520962e-10 3.03629121845e-10 13399.3337154  
17546.8128686 -2805.34712541 -11267.0008134 -7.55562723498e-10 2.30613750318e-10 13803.4367632  
13655.4822745 9054.62015529 -29144.1380431 5.0249582273e-10 -1.97630356524e-10 494.126636789  
-10584.0405563 22139.4246994 -42893.189962 -4.37239577877e-10 2.04778416446e-10 -22632.3246775  
-66022.0083226 30397.156819 -46704.5522897 2.79669620795e-10 -5.03064256918e-11 -46638.6687078  
-155090.244991 24214.5058744 -59743.120092 -6.23003870714e-11 2.49428921961e-10 -75245.1586674  
-170748.208793 78284.1117125 -27855.2213484 5.63602498005e-11 -1.72349245986e-10 -119259.436417  
-324941.960453 -39148.7145538 -323091.163025 -6.57962573314e-11 -2.40333974943e-10 -112876.617715  
-315787.451573 16771.3949547 -300052.74196 -2.62303956333e-10 -1.97132976609e-10 -51415.7953685  
-347496.463318 15774.0051681 -313851.84794 9.33226829147e-11 1.537046046e-10 -3488.09865939  
-317418.889677 16622.9299822 -304077.637474 -1.48446588355e-10 -3.04908098769e-10 44275.0515626  
-318365.840747 -36038.889499 -326430.754189 -3.35376171279e-11 3.93356458517e-10 108154.989806  
-170024.148719 73751.7534354 -40579.5733529 5.4336624089e-10 -4.06089384342e-10 127318.254569  
-159568.406454 19865.6183546 -65540.3717193 -3.44016370946e-10 2.36809682974e-10 85225.0062369  
-77153.7535731 22178.3410457 -56573.2701919 5.86112491874e-10 -1.83490556083e-10 51405.6848963  
-15597.2899754 19735.880258 -45413.5829268 -6.13908923697e-10 -2.23735696636e-10 23523.9713041  
13996.823455 9241.67770274 -27629.896259 2.59433363681e-10 4.65192329102e-10 -1103.04965491  
13457.6287507 -14430.5047245 10871.4693548 1.82012627192e-10 -1.46556544678e-09 -13525.350546  
1275.87473483 -9552.19641499 16472.5053683 -4.49972503702e-10 -1.72349245986e-10 16754.8717589  
-4802.88580072 -4205.31320077 22879.4416363 -4.2814463086e-10 -2.73132627626e-11 14365.100784  
-5926.97922607 2631.33071379 32438.2878572 2.79669620795e-10 5.80939740757e-11 9252.03445175  
-15051.6013567 3263.97348691 35559.4902507 -1.16642695502e-10 -8.29345481179e-11 2916.69660328  
-18944.1184814 5299.31405657 33300.7577614 1.49043444253e-10 -1.31876731757e-11 -6125.20808975  
-18166.7465527 8472.83219204 19147.4133337 1.20621734823e-10 -5.40580913366e-11 -18134.5418469  
-14739.9197799 9187.78069111 -6923.4393645 -1.27897692437e-10 -3.54702933691e-11 -27511.3864089  
-7899.66895164 10483.724677 -39458.2067281 -1.26988197735e-10 -1.17069021144e-10 -36198.2148612  
-2621.01393824 10644.3796089 -71448.6015677 8.4924067778e-11 9.2533980478e-11 -39769.5776684  
-249.209871178 7371.67567601 -100880.171225 -3.3480773709e-11 -1.11334941266e-10 -37686.0553539  
3273.45829438 4242.0714105 -127625.638838 -1.17665877042e-11 1.69109171111e-12 -34670.2187895  
6554.96139801 1687.7984706 -155074.786483 -3.14628323395e-11 2.40447661781e-11 -30419.0875389  
9281.57643218 -24.028468333 -181040.347972 2.57927013081e-11 -8.24229573482e-12 -24524.2868824  
10699.0915893 -1758.79181981 -203208.055384 9.9049657365e-12 -1.08713038571e-11 -18116.162753  
9030.84079828 -6209.36750298 -220921.015841 2.95585778076e-12 -6.4517280407e-12 -12505.4242541  
3827.69188943 -16806.7577987 -234271.820784 8.49809111969e-12 -7.02016222931e-12 -9781.90776758  
-6657.67780258 -37424.0458852 -244044.355046 1.04591890704e-11 -1.00612851384e-11 -14384.8793068  
-3399.12699211 -48409.0010148 -215266.219026 3.81561449103e-12 -2.26663132707e-12 -26594.1869156  
-6014.74363143 -37204.2563356 -244591.170951 1.02232888821e-10 -7.59854401622e-11 13858.5024943  
4332.65929528 -16510.6013903 -234986.61012 -8.64019966684e-12 1.08855147118e-11 9242.16413983  
8516.98088104 -6394.79650594 -222322.464365 -7.54596385377e-11 8.20534751256e-11 11753.0112958  
9390.55367458 -2334.4294778 -204676.544357 -2.03328909265e-10 1.68242308973e-10 16947.9702672  
7438.47704812 -952.008129554 -181778.964238 -7.1054273576e-12 8.10729261502e-11 22597.5633268  
5122.68448388 940.7381729 -154046.219012 1.18291154649e-10 -7.80389086685e-11 27673.1006972  
3799.32003852 5323.30169052 -123018.604813 -3.41628947353e-11 -1.05238484593e-10 31808.3739396  
350.116197986 8247.11627914 -94449.393265 -1.96223481908e-10 2.62794230821e-11 34974.6564799  
-1906.66475462 11048.4804691 -64955.9239527 -5.62749846722e-11 -6.49578169032e-11 37642.4932863  
-7703.03348302 10885.6414363 -34656.1405207 5.63886715099e-11 -1.56674673235e-10 35179.3201064  
-15445.1782116 9551.34896861 -6312.247599 -3.66071617464e-11 9.55253653956e-11 27645.1504206  
-20323.7649966 8934.87092142 17699.7400109 1.18120624393e-10 3.88524767914e-11 19187.6599014  
-20075.318968 5776.53614861 32791.5494922 -2.75122147286e-11 1.3969270185e-10 6718.77519352  
-13874.4309513 3459.62559594 37552.7644476 -1.13459464046e-10 -4.80696371596e-10 -3050.1166386  
-8187.41659262 165.316408423 34287.9790859 -3.67322172679e-10 1.95257143787e-10 -9780.73118578  
-3677.02166433 -4771.11382591 26788.4634975 4.35989022662e-10 -3.39099415214e-10 -15047.8218066  
1995.46098286 -10205.5390856 18630.9515408 -5.54223333893e-10 9.05231445358e-10 -17400.6758069  
95877.9100111 24628.2327117 -88283.7871351 5.42783595847e-11 -4.76205741506e-11 1666.07315334  
-160892.762449 -135845.142774 -455466.573096 1.00101260614e-10 1.09423581307e-10 119602.854105  
-100823.605456 -67984.9060178 -342900.737811 1.46826550917e-10 1.95633731437e-10 -99606.090148  
58695.5846672 2482.91394657 -186319.266965 -1.01927355445e-10 -1.37148958856e-10 -24385.1932099  
57084.6081154 418.288995146 -188511.080738 -1.53974610839e-11 -6.02540239925e-12 25071.5963097  
3478.44690664 -912.62112117 -208168.274858 5.41717781744e-11 -1.37276856549e-11 54345.25922  
-4390.30488108 1453.70669724 -232135.391762 1.82296844287e-10 -2.42177833343e-10 55117.7048453  
-10096.1320415 -1841.95184267 -311080.863842 1.41085365613e-10 -1.2525447346e-10 64135.4099801  
-45955.1630742 -18986.167408 -306298.679506 3.56976670446e-11 -1.64106950251e-10 81606.2120995  
-134346.758773 -74953.3995373 -338428.105382 -2.19870344154e-10 -2.50850007433e-10 70542.0211008  
-91026.7371676 -32661.7001325 -262121.32837 6.23572304903e-11 -1.07561959339e-10 -61167.0544868  
-45348.6641739 -8516.1023889 -264530.045677 1.42184338377e-10 2.88006655561e-12 -54384.2237445  
24809.6812821 -49620.2570166 -294841.921426 1.02886588138e-10 9.86801751424e-11 -156284.832382  
91282.3974836 32599.1991381 -78489.95893 -5.54791768081e-11 2.59054407555e-10 207406.737247  
24490.6595548 -40933.1890499 -262785.287691 -1.88947524293e-10 -5.10681275045e-10 177077.648672  
-5657.60249294 -41110.6300021 -314030.414643 -1.33127286972e-10 -1.54415147335e-10 87937.6808082  
62267.0174195 -3647.80775935 -172489.274202 3.80353526452e-11 3.78292952519e-11 -16732.1622934  
42331.5604539 2391.42331456 -1058.91337094 2.10320649785e-11 -1.23634436022e-12 -3571.46413947  
84085.4305818 373.347973668 4437.52573356 2.36326513914e-11 5.24380538991e-12 -6586.41990178  
78063.2623336 7128.62011749 -331.023957412 2.52953213931e-11 -5.85345105719e-11 8383.11857847  
79744.2371351 18395.9969807 -20607.6831806 -1.11413100967e-11 7.52820028538e-11 1017.81726658  
62764.5033827 9888.74600234 -85773.1850059 4.12114786741e-13 -3.86393139706e-11 -4308.78863353  
-4296.34181776 -27940.3547179 -204436.411704 1.84741111298e-13 9.23705556488e-13 -19768.1411657  
-11371.9006169 -26471.0198399 -176502.742703 8.38440428197e-12 2.60911292571e-11 -17765.8869972  
-11896.2149746 -21554.0377291 -146013.558836 1.68682845469e-11 2.68016719929e-11 -11745.2014422  
-6648.24161435 -12148.8965234 -113155.689786 -1.86446413863e-11 -3.72537556359e-11 -5480.40250385  
-4360.9102067 -8244.09601883 -72086.778163 1.79198877959e-11 3.45110606759e-11 -7.39464744432  
-1519.75454511 -5745.93753737 -35485.6668482 -1.46656020661e-11 -4.39150937837e-11 2548.18778745  
1042.74461154 -3379.53812831 -8709.66618579 1.70530256582e-13 -1.22390986235e-12 1967.50695381  
2903.73256005 -2210.48464246 5899.66843301 2.81374923361e-12 -3.82271991839e-12 894.214400783  
3537.76034695 -2039.7184146 10241.2517637 -9.42135258697e-13 -7.49267314859e-12 128.27220575  
3103.49550543 -2354.4960958 5352.46613033 -4.12114786741e-13 3.32534000336e-12 -593.865218029  
1568.66599295 -3450.29781359 -9978.51880513 7.92965693108e-12 -2.39857023132e-11 -1684.99994931  
-1148.89120684 -5753.97794847 -37555.6543722 -1.93267624127e-12 1.26263444145e-11 -2016.08127931  
-3303.09384798 -7686.12389258 -74941.7009751 6.02540239925e-12 -2.2630786134e-11 811.499157263  
-5975.23445763 -12630.0774036 -115888.999848 2.78532752418e-11 -2.4797941478e-11 5821.10894878  
-11278.0757762 -21803.3063838 -149810.007987 -1.49498191604e-11 6.48725517749e-11 12529.1444585  
-9602.22065922 -25361.0225131 -178299.307087 8.29913915368e-12 1.08713038571e-11 17952.6834263  
-2718.80944697 -26833.0753603 -205011.407192 -4.38404867964e-11 3.93924892705e-11 19201.5820215  
-5144.80969113 -3685.89720694 -28455.7943265 1.22224719235e-09 -4.01030320063e-11 12108.8960175  
-18064.7622448 1061.30153028 -67673.5158355 -8.27753865451e-10 1.68945746282e-10 -15667.2411282  
-42509.7449604 -1973.38819839 -90370.2979971 4.48267201136e-10 -1.16671117212e-10 -52810.3530481  
-59490.9834192 10707.6297197 -68916.9677068 -4.01087163482e-10 6.19593265583e-10 -91998.0414466  
-82567.6188637 26198.6860156 -56939.0674855 -2.16971329792e-10 -6.31303009868e-10 -131409.271688  
-109815.038888 25038.786424 -94565.6467282 2.03442596103e-10 1.26647137222e-10 -170779.104959  
-172361.715175 -29257.1244781 -237401.203773 -1.03739239421e-10 7.43511918699e-11 -159326.732657  
-164004.662975 -11624.8236507 -268883.795345 -1.08315134639e-10 2.53521648119e-10 -91701.0772087  
-162160.174417 107.171873544 -273401.964399 1.00001784631e-10 -3.2332536648e-10 -13170.0745802  
-163431.988315 -6204.56011976 -271518.152213 6.45314912617e-11 -8.94033291843e-10 68377.1994978  
-154959.085216 -15097.9149505 -233822.164972 -1.20053300634e-10 4.60431692773e-10 147056.304793  
-94539.6150484 30095.4119706 -98612.3508199 -1.94290805666e-10 3.95402821596e-10 176921.842718  
-83799.6942655 17583.5616776 -74463.1164005 -9.39621713769e-11 -1.62117430591e-10 146500.973437  
-68646.2640488 -1071.47595698 -89992.0854283 -8.08881850389e-11 8.74820216268e-11 96994.3394335  
-36309.941175 2684.39273991 -82306.391881 2.21234586206e-10 -3.13292503051e-10 49164.5192466  
-11656.1391155 5181.94472412 -56351.7975651 4.36557456851e-11 -4.01151112328e-10 11043.2495484  
-1349.47257656 -2195.35729124 -20513.2116468 8.68453753355e-10 -1.38442146635e-10 -14466.7295852  
-6679.85997922 5196.01361338 -45267.4953536 -4.0768100007e-10 1.04051878225e-10 3577.83786252  
-8305.87388131 13261.5270855 -59472.5440996 1.01067598735e-10 -2.44227749135e-10 300.283292894  
-20217.6144944 10801.1485498 -78333.9671127 -4.40309122496e-10 -1.00925490187e-10 -5850.14217246  
-30040.4946787 7211.88117866 -89695.5959998 3.86307874578e-10 -6.8212102633e-13 -18847.1198081  
-26804.8390598 9477.52060599 -94039.6575191 -1.02090780274e-10 -8.55493453855e-12 -33021.3529242  
-21110.7297166 9020.95162112 -108880.973936 1.24032339954e-10 4.87148099637e-11 -46307.9415534  
-10346.2505801 7896.44029038 -119068.541585 2.45563569479e-11 2.40163444687e-12 -52985.5964518  
-3481.49174321 6002.96823942 -131501.675219 -2.23963070312e-11 5.05764319314e-11 -55301.5573436  
1641.9582703 3836.90474768 -145199.229258 -8.46966941026e-12 -8.79545325461e-11 -54809.8628773  
5501.59013101 2185.24198769 -158258.992173 -9.20863385545e-12 -2.87005974542e-11 -53353.314292  
10170.866863 1132.68418242 -170743.837377 -2.29931629292e-11 -4.82458517581e-11 -49320.9011463  
17281.090914 1110.60638355 -182864.941249 -1.05089270619e-11 -3.42623707184e-11 -41254.2850337  
18282.5043531 -1137.49861242 -195662.544958 3.52429196937e-12 -1.62430069395e-11 -31075.6117356  
14585.7425794 -5814.96166338 -205682.549307 -1.38129507832e-11 4.29452029493e-11 -22024.5481859  
5879.37711644 -15440.2670333 -211427.701125 1.73372427525e-11 -1.33297817229e-11 -17895.5730237  
9040.56731006 -13194.5138237 -210872.215224 -4.41957581643e-11 5.00506303069e-11 17051.6000882  
15902.0388591 -4351.45602102 -205597.925104 -4.71800376545e-12 -5.29354338141e-11 21749.0030777  
17011.5469672 -375.07243272 -194994.855353 6.50786091683e-11 -6.29967189525e-11 30237.2524488  
12782.9844851 236.3902616 -181437.572595 1.24842358673e-11 -4.34781100012e-11 39449.1770365  
8170.89879203 1075.85283884 -165415.742033 -1.45377043737e-10 9.90851845017e-11 46463.6741616  
5404.65133285 2938.91997433 -149192.225994 1.43302258948e-10 4.08988398704e-11 50443.3129395  
1700.35655425 4935.89372121 -134759.82236 -1.03170805232e-10 6.54374332498e-11 52501.3994533  
-4424.69641952 5336.2329527 -124714.038595 -1.6916601453e-10 -1.66835434356e-11 53051.7309338  
-10681.1383883 8371.39589463 -114282.651746 -9.82254277915e-11 -5.40012479178e-12 51783.2368314  
-21777.582454 9940.60103639 -107497.869778 -8.86757334229e-12 3.95630195271e-11 45942.3535634  
-32545.8279271 7067.60303011 -99501.1066503 -3.98131305701e-10 2.80152789855e-10 32808.0401601  
-31282.9672583 10191.76381 -88795.7116199 -6.91215973347e-11 -6.66716459818e-10 18313.6246649  
-17578.9907871 11094.9619751 -71883.0459819 2.55795384874e-10 1.95655047719e-10 5416.19431264  
-9976.91130718 7737.84388372 -53832.7910425 -2.31466401601e-10 -3.92986976294e-10 -2463.88360546  
-7386.95568236 1801.37205173 -35541.3540799 -5.80939740757e-11 1.22525989354e-10 -8488.82693688  
67381.5615366 -1302.67059955 -167680.646566 -5.54791768081e-11 2.4996893444e-11 14705.2171636  
-17264.9728779 -12336.7088622 -253671.960087 2.29874785873e-10 6.2039854735e-10 71664.6153707  
29216.8906928 -4362.18328025 -243297.504442 -3.87103682442e-11 5.96855898038e-11 -82439.3542989  
45710.1747785 -914.207615017 -187883.807821 1.0667910999e-11 -2.64321897703e-12 -40395.1810853  
58018.0893484 1759.81873503 -179126.160903 -8.19042611511e-11 7.64401875131e-11 33255.7013454  
40233.2292839 -349.975960216 -193961.112499 1.39387168474e-10 -9.73585656538e-11 46422.2444994  
5989.8153815 -8422.55518839 -219449.758643 -1.24458665596e-10 1.15548459689e-10 45975.0462866  
-134.147623523 738.619544414 -219990.210065 -1.09082520794e-10 9.19442300074e-11 53284.2567638  
-10633.1242452 1939.31228482 -238128.163734 -1.46656020661e-11 -3.76303432859e-11 60262.542906  
-26794.7504713 -716.220867417 -236183.060643 4.10409484175e-11 1.82836856766e-10 64961.4274297  
-55780.7442628 -10521.93153 -230892.311062 -7.99786903372e-11 8.70272742759e-11 59967.2463913  
-81440.3781046 -29124.7598911 -236936.823908 2.38287611865e-10 4.74358330393e-11 41353.3836038  
-25796.1096697 -6277.46727619 -205986.474622 4.21778167947e-11 1.7910828376e-10 -43984.9190573  
-80009.2813999 -25872.9916507 -221534.382346 -1.20621734823e-10 -5.83213477512e-11 -47952.4023226  
-60136.1430707 -17642.4202514 -243463.3317 9.0665253083e-11 6.83542111801e-11 -64719.8147049  
-48575.097581 -17655.8449767 -269182.942978 -4.00746102969e-11 -5.07895947521e-11 -75138.4660491  
1591.4904696 10706.1878751 -251449.710769 -2.8194335755e-11 -1.92699189938e-10 -64170.096141  
2012.371542 4387.60485011 -258626.787621 -6.78710421198e-11 6.09041705957e-11 -53722.1858089  
4141.91517878 3093.90532361 -246645.237346 -3.03543856717e-11 4.60076421405e-11 -48002.5034265  
6376.97677061 755.675253275 -231579.980694 2.44426701101e-12 -3.31965566147e-11 -46377.8029072  
9369.4208 -3951.13372899 -219960.413384 9.7202246252e-12 1.56319401867e-12 -45256.6662979  
39748.1849437 4118.14186002 -189315.668466 -3.56834561899e-11 6.74020839142e-11 -49478.8493513  
48899.1370971 6181.24890993 -121223.061466 -1.02033936855e-10 3.72892827727e-11 -189905.568081  
4315.41401738 -18861.9199379 -195284.498527 -5.56610757485e-11 -3.36240191245e-10 -170186.32277  
77493.6816166 3011.06765038 -103036.055446 -2.84217094304e-13 2.91947799269e-10 -127949.643242  
91835.5763556 -9749.90670236 -115482.654994 -4.05364630751e-11 1.70075509232e-10 -43859.6863242  
94416.0561917 -14898.4409235 -124091.275748 -2.25952589972e-12 -2.23735696636e-10 41172.3784032  
78698.5536986 -7706.57054392 -116496.33964 -5.39159827895e-11 3.72438080376e-10 125263.080829  
65464.0839363 10276.1925247 -111850.787017 1.74850356416e-11 2.50838638749e-10 184845.082155  
32974.3135947 -2656.10941469 -177027.320017 -2.30727437156e-10 -8.08086042525e-10 184048.97651  
22814.3489991 -19575.318757 -255458.603593 1.2573764252e-10 1.48645540321e-10 97553.2536524  
49241.5321191 -3313.37310282 -149542.390645 1.20792265079e-11 1.17523768495e-11 -7651.7819189  
64589.9899549 12338.3029386 -81826.9329125 -4.28030944022e-11 -5.17275111633e-11 4738.66718635  
77481.61 17418.2812503 -18801.4482808 8.25650658953e-11 3.08642000846e-11 -723.616448949  
46630.2008502 -681.043847397 7876.64715003 -2.33058017329e-11 -9.86233317235e-12 -3659.10945915  
48723.0929145 -1765.73551823 9570.46362082 1.50448542513e-11 -1.27897692437e-12 231.317112486  
47260.60354 -410.243929489 7369.01053916 1.19797505249e-11 -1.6790124846e-11 3825.99279373  
43771.0836214 2979.48782846 -2482.97372811 1.43529632624e-11 3.92930132875e-12 3554.04110515  
42505.4608542 7096.8232208 -29566.8064575 1.42961198435e-11 -5.33511013145e-11 -1016.23957251  
46008.9624671 8642.53477418 -79708.4439592 -1.39266376209e-11 1.25197630041e-11 -3246.05904076  
51654.192707 -4850.3194721 -148764.370245 -6.38777919448e-11 3.82271991839e-11 5706.83226772  
8210.12784871 -13681.4734155 -185134.470395 -1.58877355716e-11 5.71276359551e-12 -18941.912908  
8826.09003547 -12453.5864502 -156726.910371 1.32160948851e-12 -9.43600753089e-12 -13696.6805826  
12159.2051896 -6530.40079371 -120010.426783 1.89714910448e-11 2.77537992588e-11 -5722.27432544  
16956.3482833 325.462352943 -77876.499925 -5.31485966349e-12 -1.40971678775e-11 249.097500341  
15607.0378817 -341.317107309 -33244.1297331 1.12834186439e-11 3.31468186232e-12 1565.61680646  
17677.9248301 -863.747734981 -5222.27873503 2.25952589972e-12 -1.27702293184e-11 -208.685602645  
20216.3614116 -1603.41830161 7788.8532039 -2.41584530158e-12 -3.39639427693e-12 -919.058444285  
21150.3220791 -2160.26409528 11091.627059 9.85522774499e-12 -1.15818465929e-12 118.003566158  
20800.5795887 -1509.49464495 7254.63794715 -4.0216718844e-12 -2.60058641288e-12 1144.24311957  
19292.9920402 -419.961533526 -6636.65068162 -2.79669620795e-11 2.83399970158e-11 102.786608674  
17937.7721071 377.591427399 -35320.9397578 -1.75930381374e-11 7.73212605054e-11 -1420.15522315  
21356.820106 2453.40798984 -79251.7684687 4.55031567981e-11 -7.29443172531e-11 -657.871027111  
18442.4496224 -3293.26893217 -119235.253747 -2.62758703684e-11 7.75202124714e-11 5262.32072457  
11640.6376939 -11466.5741854 -160915.072431 1.45234935189e-11 1.31592514663e-11 14985.1460195  
11346.1139009 -11392.9732593 -186821.209992 4.89706053486e-11 -3.74598130293e-11 19478.4650211  
-20240.6075226 -4187.54535256 -117082.598143 5.54905454919e-10 -1.58173918408e-10 -27435.2368195  
-43696.6495088 -25169.0932878 -162276.315143 1.73372427525e-11 -4.78337369714e-11 -75989.1150122  
-1739.36864253 20444.1144928 -96010.2458193 1.59388946486e-10 3.74598130293e-11 -131674.290684  
54732.8983783 83152.4773768 -10127.4727809 -3.12638803734e-10 -3.87444742955e-10 -154948.856789  
-58063.5685155 -18634.0619411 -154804.958565 4.6156856115e-11 1.65528035723e-10 -186466.720999  
-58511.1789942 -27742.5263337 -184242.866656 9.94759830064e-12 -3.06044967147e-10 -180366.64716  
-38122.8883806 -16319.8149378 -191080.707476 5.85487214266e-11 3.02406988339e-11 -120597.988928  
-32364.0733848 -11652.7246707 -199362.952819 3.14912540489e-11 -2.60570232058e-10 -30133.1134465  
-28369.8090439 -6576.18905153 -193449.194008 1.796252036e-11 2.28283170145e-10 65268.1511943  
-23081.2133054 -850.520381926 -157109.993539 -9.02389274415e-11 -1.54614099301e-10 149051.121242  
-6637.58758547 19484.1221294 -107468.607255 -4.38262759417e-11 -1.92812876776e-10 190068.850146  
-20356.047425 4792.69610465 -126549.729849 8.08313416201e-11 4.49063009e-10 174581.637243  
-19560.470911 -2367.50492696 -133303.045672 1.66096469911e-10 2.34194885707e-11 117316.823199  
-16355.8761794 -1078.83505159 -122015.546104 3.3429614632e-10 7.05469460627e-10 61176.892874  
-11016.0296274 5542.94149336 -94627.7214813 8.1581674749e-10 4.95319341098e-11 20040.1325546  
-21944.7076476 -4775.62131342 -155100.432018 -4.0249688027e-10 1.80364168045e-10 -26153.6540029  
-42316.5325526 -11528.7746669 -157964.573578 2.52043719229e-10 9.00968188944e-11 -19653.0345683  
-55616.9437609 -11370.3782755 -161861.753066 -1.08911990537e-10 1.26703980641e-10 -31864.1299526  
-39945.0932533 1874.92172705 -159756.788843 1.28579813463e-10 -1.59957380674e-10 -46612.268375  
-32056.4006419 -1248.52554999 -178552.893018 7.98081600806e-11 7.66533503338e-11 -57609.6384666  
-13555.3810739 3775.18366503 -185414.384523 7.16227077646e-12 -1.73372427525e-11 -62045.5346601  
-754.412588822 5952.19365839 -189160.683718 -3.2684965845e-11 -1.25453425426e-10 -59773.4613298  
3927.40556048 4024.98893902 -191297.587577 6.41762198939e-11 7.48201500755e-11 -58091.6859814  
6657.33086116 1030.63458711 -191601.421912 4.70663508167e-11 -6.06448224971e-11 -57527.9025976  
16330.9363867 -580.884813208 -191522.649357 -1.33468347485e-11 -1.45746525959e-11 -55713.921448  
26692.2754328 -1567.70318014 -189936.5923 7.71649411035e-11 6.57109922031e-11 -47749.7590218  
29966.2722009 -1778.25385593 -189385.48104 4.391154107e-12 2.61337618213e-11 -34797.7209128  
21182.3267833 -6814.02463134 -190124.6046 -1.57456270244e-11 -3.76587649953e-11 -24329.2055222  
29182.8926765 -1289.73101436 -187348.86486 -5.05622210767e-11 -1.14965814646e-11 25382.9725112  
29140.3579585 1228.71760368 -187022.951524 -6.85531631461e-11 8.75814976098e-11 37300.8058297  
19715.0999557 -553.500164025 -186028.65012 1.60646607128e-10 -1.6488854726e-10 48973.7627156  
10497.279292 -870.657856808 -181952.485632 -4.5758952183e-11 1.71311853592e-11 55609.1680351  
5241.64832951 724.808899146 -178406.770676 -6.82689460518e-11 8.09379230304e-11 57653.569958  
675.283642166 2220.75646339 -177736.221862 2.38117081608e-10 -1.17109877351e-10 57970.4480435  
-4595.84671415 3641.40424629 -177591.785517 -7.17363946023e-11 2.35854002995e-10 58602.0029633  
-13699.8122822 3600.21126348 -176493.782081 1.12549969344e-11 5.47117906535e-11 58796.1321209  
-28811.1175058 1640.88495762 -172596.531996 -1.54614099301e-10 -1.24771304399e-10 55597.6564599  
-49013.2934792 -3433.55784131 -168196.022631 7.09405867383e-11 -1.04506625576e-10 44738.7757031  
-55273.7770253 -9253.60761372 -165315.274939 -2.18392415263e-10 -3.37081473845e-11 27280.5989212  
-25871.4655381 3265.47953821 -141088.886303 6.63931132294e-11 7.25719928596e-10 19196.9231623  
-5005.82345255 8311.00592664 -118621.705994 -4.77257344755e-10 -4.26325641456e-14 20053.3430233  
39541.2150814 -5604.79517643 -181173.670669 4.8601123126e-12 -3.44755335391e-11 -26921.9778963  
-7179.4079965 -20757.0148493 -213475.510126 -1.67233338288e-10 -3.1633362596e-11 -84792.6446381  
-4234.97393804 -5943.92322924 -169268.009045 -1.60866875376e-11 -2.20751417146e-10 54879.871791  
26112.4019491 -8281.5936015 -169324.987723 2.9388047551e-11 2.51247911365e-11 -17472.3368335  
36473.4198326 -2125.74254396 -168200.569762 9.29958332563e-12 3.55839802069e-12 20972.8561719  
18396.1238012 -2396.9801902 -9351.99807689 2.21689333557e-10 -1.23606014313e-10 -14374.9111065  
-54503.6505261 -19258.6543665 -201434.587911 2.02362571144e-10 -2.77585362104e-11 -42200.0856787  
31695.2811433 -3829.9777769 -131714.177549 -5.96855898038e-13 1.18376419778e-11 -5436.34467477  
42530.5171438 7669.31950986 -78915.5190323 -2.73985278909e-11 -4.93258767165e-11 3124.25148831  
39998.2746274 6435.07099062 -27175.5312417 8.52651282912e-12 2.32880381645e-11 1065.53337723  
42884.1380887 2200.85303009 -125732.114693 -3.46460637957e-11 7.63122898206e-11 3029.51894685  
41464.477242 1166.59798292 -182565.077234 9.45021838561e-13 -5.47544232177e-11 38873.2787547  
26950.2065008 -2384.85305017 -193052.685066 -6.43680664325e-11 1.97459826268e-10 51551.2299584  
10294.180308 -3682.43291542 -200593.907788 -1.48048684423e-10 8.48956460686e-11 55588.8576746  
3158.33093266 -16254.222922 -202713.694982 -2.92857293971e-10 4.36443770013e-10 114401.994756  
37172.3620676 -15927.7184886 -188890.971961 2.10699605911e-11 3.9487228302e-11 24989.0645988  
13125.8041134 -5962.4804823 -209852.148211 1.18499580518e-10 1.24316557049e-10 -41374.9598022  
-27081.5970624 -14988.6681666 -217589.332093 -1.848093234e-10 -3.27443672177e-10 42300.9951217  
-824.553453098 -1385.94940485 -262568.904947 7.08268999006e-11 -1.06822994894e-10 39996.8081275  
-5156.73223691 -3136.51528866 -290063.765459 4.25188773079e-11 3.16688897328e-11 42821.7832492  
-10637.294015 -5739.89840266 -313190.898383 -1.51885615196e-10 1.91562321561e-10 50492.5357701  
76297.3117911 6516.39950158 950.388898819 -1.47792889038e-12 -1.13118403533e-11 -8513.74892063  
85927.4855684 1164.81279434 4206.63780299 5.30633315066e-11 -3.17044168696e-11 6703.51935379  
1515.98750509 -2521.92281368 -237067.973789 3.42765815731e-11 2.44142484007e-11 41051.9573276  
118473.85735 7367.68852756 2494.78973778 -1.12834186439e-11 -1.29318777908e-12 -6018.68877601  
1999.72248529 -14132.7792183 -234954.662247 653.106683145 7522.53928175 26669.4755964  
3083.49254451 -4010.101184 -264800.940174 -211.222318772 6811.59073976 21337.4492587  
-1164.80013503 -3808.78225065 -303020.004532 -625.696993688 5977.49255841 21031.5710898  
-5015.7660426 -5674.92708712 -340592.418719 -927.147788607 5527.50320085 23474.1934034  
-12244.5564447 -14228.0817892 -384954.616591 -1213.72120523 4331.45599635 28995.9270096  
-23479.5213856 -31590.3876603 -433499.146298 -1287.858921 116.17977212 41963.3844992  
32757.2540003 -186.290839926 -381124.28396 -902.545423686 -7188.5621421 76310.5423212  
13319.5877987 15861.4368109 -311645.118993 1681.63875271 -2813.86986964 -73143.7874959  
6459.55770533 -504.65743591 -357449.255852 2233.90945565 1989.77553219 -49033.7222959  
879.123693635 -878.205386759 -340310.842683 1629.96161437 4370.94217619 -33329.5685014  
-215.05236437 -1951.13651963 -314799.356058 1140.65274078 5169.31628468 -27530.7629379  
-308.61716149 -4447.67217275 -287851.515572 571.426801167 5768.24994902 -24302.1677485  
5307.12074823 -3411.38221988 -253474.697973 -68.7752802877 6819.897638 -23572.4230801  
6975.60966391 -14478.8855333 -229813.427106 -846.866457369 7569.79461621 -28754.8036328  
171130.175809 72797.6582549 -21025.263338 -18692.5116319 -4588.86929078 -156818.979858  
156317.732751 -6400.90783661 -79138.8729424 -15603.5825055 -2593.73101485 -91369.9511135  
231398.689615 -7469.73231415 -75412.960615 -7340.27703905 -1346.17163086 -33246.5345499  
252492.376707 -6506.71087621 -75969.3626019 1962.28705339 -1220.92997429 16295.2596692  
226994.353623 -1649.77145136 -76164.4696953 11154.080425 -2142.50885748 63442.5101096  
162201.621429 3734.12251687 -73176.5633703 18999.7927361 -4120.56398745 104040.37026  
179475.13582 79453.9743232 1339.93407425 24587.601254 -4139.02030255 150280.134084  
662.221386672 -69316.0122808 -340102.357696 19300.0397301 -12241.4370507 161360.01791  
90911.9543548 20373.4874794 -89636.2715229 -6694.68921359 4114.42090761 -1959.46182925  
116321.041078 30838.3620145 -8690.30893031 -6328.19266972 -580.566887501 -3727.0169405  
114607.271837 11673.8210393 -3419.09604932 -3192.09584022 -1473.63815778 -9744.82156195  
85556.2474238 -1099.52001867 5814.69503985 25.9497014386 -2458.46407171 190.36018118  
117175.63981 4109.73318655 3908.53255348 25.2909674713 -1522.44868678 68.6825497906  
119041.571682 7493.96063428 3433.10044507 970.755014774 -1483.02821561 5722.6427927  
118006.408229 14060.4689286 -2025.85115205 3365.54994876 -1335.08850958 8979.89992547  
121308.553875 34441.8470492 -6191.3574536 6625.31665378 -552.941634189 2582.72182538  
-35606.6609273 -51276.514923 -194564.844839 -1654.86812103 9068.79625647 -23608.7349074  
-39531.6642914 -44634.4314586 -166930.456264 -1647.99793278 7971.64886442 -14346.3592928  
-33224.7859718 -33231.0686943 -137971.894586 -1192.29621284 6973.46914534 -7380.06968824  
-24321.2101958 -23154.3180623 -103850.301474 -922.580978726 4980.65420232 -858.783091314  
-18368.5253057 -17228.2320459 -68190.5582521 -681.003678735 2740.60835043 4077.58654167  
-12184.9344194 -10579.9743852 -36028.0520235 -403.851474345 1021.41962356 6104.3036973  
-7894.19026009 -5358.09044557 -11831.5275204 -170.941865374 -180.695414298 5226.99427988  
-5121.91258952 -2128.92266234 2828.50646404 -45.296468824 -876.100637207 2873.7284268  
-4241.26198297 -1154.37156945 7502.79586444 -0.691039871079 -1103.35504632 132.467687928  
-5263.27252222 -2248.26142247 2513.74257816 58.3202646538 -882.410056089 -2627.38760765  
-8141.50525078 -5573.22311769 -12461.8802502 166.754382149 -198.939094799 -4782.07422058  
-12525.5281579 -10863.5248489 -37208.8734309 420.709569159 1000.67934317 -5632.873249  
-18695.1715083 -17512.7046233 -69654.4710805 724.532256656 2712.52051018 -3729.46516025  
-24737.7627165 -23333.3100549 -105471.242594 950.702641179 4906.87817755 1477.16381195  
-33649.6951695 -33851.7430117 -139938.274795 1268.6739142 6846.54445238 7702.6393255  
-39751.8207247 -44836.4054917 -168599.920834 1657.07942325 7839.20590075 14664.0466902  
-34842.1534093 -51024.322573 -195042.604787 1668.00898647 9009.2753567 23373.3065778  
-3012.04004384 -45510.7207974 -215250.277666 1296.8376589 10048.1659803 25949.3450354  
12418.4624214 -13477.2211764 9311.9650442 -3260.17025834 730.914150762 13106.2321541  
16749.4725717 -3003.18197895 -11312.633408 -4395.9770759 -771.435634697 13246.2119658  
12663.7149158 7311.01380379 -29159.8699007 -3198.71278939 -2087.37299835 -443.477071539  
-10767.8150194 18667.413841 -42706.3188581 608.753113836 -2600.9620641 -23913.2846881  
-65194.7462139 25169.0337835 -46685.1543347 7253.76856401 -2935.04877204 -48152.4772131  
-154214.800848 18945.1367567 -60450.4044402 15203.5380299 -2678.13641995 -76353.06672  
-170157.58195 74274.6794092 -29865.3569573 19774.342479 -220.010383802 -119763.971609  
-325096.031653 -40635.489114 -325777.380909 18127.4330721 3588.47408129 -113018.19185  
-317516.967007 15730.1631024 -304358.439732 10981.6752445 6001.92378564 -51424.7672241  
-349353.718801 15338.4257415 -318435.794614 498.484360999 6869.01360412 -3512.33595856  
-319030.685924 15607.7278594 -308231.506229 -9931.37937111 6359.53883174 44255.4035826  
-318511.730429 -37672.7272148 -329040.553383 -16972.5101071 4070.74121542 108273.768001  
-169316.453154 70052.551538 -42394.4406144 -18569.6903645 85.1215152306 127888.359442  
-158649.693261 15114.7858873 -66207.0239205 -14240.8167761 -2552.06688982 86419.718142  
-76541.5024561 17251.4545381 -56703.1951445 -6845.39712173 -2967.69478745 52924.198064  
-15963.4822359 16254.7093925 -45347.9068119 -529.880768519 -2682.55563285 24852.2598732  
13003.1977351 7486.58945911 -27606.15748 3209.35985523 -2075.06255748 -160.532245263  
12961.1780197 -13123.1296915 10695.9302395 3246.50093378 767.21253504 -13239.9248193  
898.235837554 -8755.64463423 16205.5737998 -2142.44117067 1240.26607587 16360.8602806  
-4805.71214054 -3951.66749576 22645.1705029 -788.442210335 1557.51409426 14020.8551271  
-5585.89564173 2298.64121221 32332.7819332 421.042383878 1714.98352874 9034.29581657  
-14577.0936899 2335.43271828 35695.8043429 1509.0645631 1598.13514541 2870.59264012  
-18403.1519244 3902.77356048 33728.4038901 2262.55171406 1147.15360523 -5983.60860144  
-17729.6445865 6849.23822852 19820.0234249 2397.70131476 431.740079816 -17880.5798613  
-14496.3570144 7807.53077863 -6289.35023035 1919.60557909 -408.427914385 -27368.1714134  
-7710.96733521 9359.50432007 -38820.9592759 1536.00307199 -1344.78428508 -36330.8511901  
-2524.28426888 9718.40181238 -70937.1036907 1040.57859774 -2261.97240914 -40255.246234  
-150.902043036 6751.49378219 -100264.469592 687.583827782 -2989.91838337 -38328.9845138  
3478.23646913 4018.14862833 -126963.382323 533.418884849 -3729.10865673 -35425.6004195  
6796.85400137 1797.51041078 -154252.765206 107.33788445 -4273.16194933 -31146.734958  
9462.58795779 335.908070539 -180117.711414 -228.299939231 -4296.25798153 -25118.0103933  
10709.0768622 -1216.68403104 -202320.664317 -390.47716422 -3741.49111476 -18529.9765807  
8770.26216319 -5377.59436035 -220440.330412 -446.894425015 -2248.99624332 -12699.1621858  
3742.79330711 -14594.4464981 -233885.495906 -549.089643578 771.360023582 -9734.35703153  
-6194.17328602 -33756.0580993 -243392.090066 -858.778337007 5521.24477262 -14068.4186729  
-3161.58447511 -45599.8116441 -214755.524082 -1309.49412449 10061.4358725 -26159.2086876  
-5554.99294466 -33542.1282893 -243945.586652 866.593898647 5500.73896845 13554.4335966  
4226.4083443 -14303.5722195 -234617.178454 554.94352111 738.964833502 9201.0153544  
8248.58771574 -5555.11569245 -221855.688953 420.693857037 -2337.91717324 11933.5515289  
9383.41396523 -1770.22968948 -203806.228973 334.701380818 -3940.15474885 17329.5159039  
7593.20669879 -564.89643315 -180872.246519 171.508467213 -4631.1801257 23137.8531789  
5319.02240625 1043.31899693 -153247.404324 -126.253442107 -4686.94792904 28324.0576126  
3997.89474973 5066.90135357 -122339.256742 -514.478361618 -4181.79629437 32489.2047442  
460.457815518 7553.50533489 -93839.7822786 -593.311571371 -3358.1006752 35562.0769551  
-1764.97547543 10050.5737374 -64379.5346676 -1020.18077051 -2510.92925829 38048.7825623  
-7518.77384821 9695.17551399 -34064.9370675 -1600.30031473 -1435.16493035 35259.0529363  
-15169.1428875 8149.12249229 -5618.76417525 -2034.04169941 -453.542924146 27566.87662  
-19804.0620687 7352.60545145 18381.7720543 -2559.0601637 388.729452575 18949.1216245  
-19492.3932831 4382.30619695 33202.5646457 -2288.07253284 1126.84959374 6605.26966044  
-13369.0333574 2524.41736195 37671.8346359 -1474.85603245 1668.17884302 -2974.56796317  
-7864.5843024 -100.646177085 34167.3548163 -326.735614173 1856.55047041 -9538.72144068  
-3680.12796187 -4398.68299504 26564.1032779 883.902448882 1709.86767122 -14701.7795871  
1655.37552394 -9312.17125226 18388.5867954 2127.95471666 1332.97281548 -17021.8804267  
95924.6688401 23184.1909599 -88057.7669096 6892.38496483 4349.38156466 1797.70829005  
-160370.230086 -128210.91012 -454980.742951 10432.4838069 -12202.2856499 120322.446374  
-99685.3344515 -60582.2997196 -341526.776266 -7321.07993097 -8144.67114674 -100303.438136  
59071.0858033 2235.23727654 -185922.710876 -4888.70146054 6202.81878069 -24788.8377269  
57425.8602915 180.464566507 -188175.221768 4893.31504133 6490.6312889 25483.435022  
3718.71725917 -875.459207295 -207476.131915 -627.00834866 1625.6514824 55522.7793489  
-4331.00738253 1467.11886658 -230882.256691 -2211.31554059 2133.33635081 55735.2529293  
-10223.5042402 -94.7322996035 -310089.968539 -2861.09236215 1092.02080617 63834.901466  
-46007.3930776 -15621.5390512 -305853.815372 -1925.74685658 -2350.62331157 81506.6268885  
-133990.267405 -69994.5705082 -338232.146832 1391.06374894 -6243.89937308 70815.3650859  
-90260.1766812 -28917.8360607 -261585.780222 994.02981075 -4852.74010143 -61362.864935  
-45476.8396234 -6312.36926807 -264760.907516 3570.62150974 -3222.31995134 -53890.9256783  
25467.3973012 -46229.597625 -295914.975772 -13994.8679901 -11230.286923 -157939.349695  
90660.8884655 32378.6404036 -80308.2496396 14054.3030493 -4256.65608084 209121.929804  
24280.4613509 -39372.5490152 -264683.857748 12548.3685547 -8402.16600813 178993.204283  
-4625.1302766 -34963.9768006 -313685.559162 10808.3904016 -11426.0875614 88906.6824255  
62499.322119 -4201.28123736 -172249.804243 -4922.85053868 3694.56173914 -16973.6735883  
41268.8870391 2114.41234448 -1061.73735224 -1303.62679993 -2123.08944455 -3057.71845508  
82330.6288678 95.9018161671 4705.3947111 -686.897206363 -2452.79270772 -6225.76782158  
77050.8594012 5993.86811451 -278.015775128 2365.20381142 -2191.55422044 7945.80601161  
79313.3041094 16779.3612384 -20597.9773869 4505.60854072 -983.223660485 734.286855557  
62671.3271 8738.92642893 -85793.9304771 4801.21314749 861.036780202 -4404.9703307  
-3921.98239018 -24760.5882261 -203933.271912 -1760.19257854 5113.32665749 -19353.9557605  
-10885.4348822 -23695.0666253 -176063.435356 -2424.8710009 4699.02228279 -17286.3227609  
-11486.2380843 -19470.9791333 -145864.567564 -2603.40958376 4053.18264533 -11219.5740961  
-6514.78574319 -10925.989665 -113259.212177 -2198.57158734 3103.7814098 -4883.90983709  
-4351.38420602 -7511.1133137 -72537.3857732 -1579.6477845 1488.65783231 558.842244673  
-1853.16633531 -5336.24881234 -35707.3207811 -1005.12015015 94.0101173554 3123.62553179  
453.857607225 -3078.63453283 -8681.35790381 -481.094005268 -866.904348552 2440.54843078  
2104.19655495 -1996.70637016 6086.52547553 -184.419671167 -1370.60536044 1158.47436203  
2670.9631663 -1850.06363697 10489.1427104 7.23892597887 -1534.580783 117.215366609  
2303.17540799 -2133.15552291 5532.87155588 191.321550408 -1376.76086791 -877.299213295  
974.955665145 -3146.39801715 -9967.29419106 523.791628938 -882.892274533 -2175.00426896  
-1471.74534268 -5337.79078298 -37788.635969 1067.35253406 29.4130227246 -2598.09707  
-3270.93068777 -6930.41952351 -75400.5287567 1704.88023967 1410.67373129 227.480881887  
-5779.90666313 -11346.9820255 -116055.435851 2350.28336454 2898.61912184 5239.12258267  
-10847.5364386 -19677.2727107 -149598.427624 2690.10571605 3699.13548405 12015.6746755  
-9102.23719115 -22574.4576119 -177810.744307 2436.68309135 4341.17331079 17503.2557164  
-2339.88491832 -23662.2422299 -204489.678346 1750.32683757 4934.49035419 18811.6528555  
-5886.53271002 -3787.63133014 -28729.8291782 -3030.44504325 -1551.5956653 11320.9886827  
-19197.7883998 339.762580742 -68019.1256359 -2941.65424587 -3953.51261596 -17040.085019  
-43221.0031093 -3062.72163518 -90208.5751162 -1421.90362425 -5027.13330447 -54721.532183  
-59485.9566203 9041.58697451 -68729.6915756 1077.13309448 -5367.60544979 -94283.5748699  
-82014.2902421 24364.9578901 -56985.1744046 3623.01793907 -5193.40585003 -133798.029588  
-108443.404714 23833.9924034 -94767.3082864 5013.48849403 -3477.48686289 -172968.561236  
-171735.02251 -32178.9591203 -239571.34735 4727.55274585 -1378.0635547 -161357.912889  
-163145.306728 -14635.7734583 -271499.475819 2800.65061665 478.125289168 -93136.5151322  
-161102.252744 -2780.7110899 -276078.015522 368.816743332 1356.40023135 -13438.244191  
-162423.802206 -9370.18145198 -274223.866146 -1994.93210451 1091.61975683 69327.3303621  
-154097.132003 -17974.1000743 -236001.298871 -3730.30580107 -579.28528085 148873.571601  
-93186.835029 29117.0554573 -99030.7811191 -3948.64243345 -2838.78123974 179234.642102  
-83166.9641019 16465.2895335 -74594.5295708 -2700.91448189 -5121.43256547 149047.388656  
-68746.0794541 -2371.01398282 -89873.9155322 -607.309232166 -5891.56963577 99322.0887378  
-37126.0307754 1446.02779955 -82237.5455791 1602.28554144 -5088.15953059 51021.1498539  
-12688.6454083 4379.03518705 -56561.5357966 2978.89486272 -3836.84284179 12347.7071514  
-2020.79206183 -2269.9874169 -20730.8515796 3045.82011162 -1287.99581129 -13718.7865301  
-6678.46801752 5110.23597361 -45662.1277643 -1241.08997541 -2083.54434005 2851.36638142  
-7590.88877853 13103.4103857 -59861.3432526 1115.97606791 -1989.74507798 -129.640761742  
-19265.11835 10367.2379372 -78385.1721824 3084.48847112 -1528.31252064 -5831.17428079  
-28996.2438852 6736.3248738 -89498.9038328 4199.81801308 -723.543117501 -18504.3974517  
-26037.2105661 9072.41926923 -93699.5042161 4161.05701309 -32.7088124782 -32687.04653  
-20576.1007687 8521.58924458 -108198.298719 3529.57948775 212.14689875 -46120.4805282  
-10059.9453972 7473.44434559 -118443.665048 2567.20301204 142.88659461 -53296.5869294  
-3326.49057407 5578.90845013 -130857.773102 1881.36010082 -138.881379171 -56020.8047447  
1764.67543264 3456.60832364 -144614.962389 1304.69585393 -539.339941249 -55839.1681286  
5700.65495048 1954.58750001 -157666.774626 664.604558395 -1028.72863369 -54534.5174586  
10432.1137318 1087.77239141 -170063.881031 -163.398861365 -1516.35688395 -50468.4204345  
17472.1997306 1214.55613557 -182095.561831 -837.264925467 -1744.65492327 -42192.7257803  
18357.2547339 -851.504215881 -194822.992906 -1173.33938805 -1829.38442917 -31719.9958341  
14385.8744701 -5232.89374535 -205168.192623 -1353.62282516 -1092.77091814 -22309.0335956  
5938.55725017 -13440.5965176 -210919.502562 -1507.50148435 1136.51563995 -17795.8026577  
9080.49743437 -11266.1715989 -210352.807534 1498.87173191 924.02118219 16982.6505424  
15684.3794436 -3840.75774347 -205066.091471 1273.18303363 -1311.92572901 22051.0585672  
17100.7494944 -90.4814960947 -194111.276186 997.360339949 -2129.36361476 30886.1815932  
12988.5362299 370.179655819 -180613.849598 563.505120117 -2203.6071058 40368.9587622  
8393.03484584 1021.18834492 -164723.412916 19.3556629708 -1970.89009034 47549.2299012  
5598.316544 2655.18549643 -148593.986348 -589.654716253 -1484.61924099 51548.9333056  
1849.43587886 4490.5386002 -134184.167466 -1192.06205067 -905.630359786 53477.4863739  
-4255.34216721 4829.2309933 -124121.873747 -1831.28779903 -315.998078221 53734.6700202  
-10440.8473158 7859.04234131 -113753.448216 -2670.9391858 27.8715609238 52063.8851329  
-21266.2162933 9372.38842469 -106889.633006 -3748.76457909 101.165636117 45715.9362198  
-31657.8821434 6750.32883349 -99201.0664968 -4355.50476473 -255.653728375 32488.6374937  
-30180.660322 9794.07106582 -88645.9882054 -4200.3704381 -897.193252687 18042.1825284  
-16589.0479605 10718.7436655 -72063.0171225 -2777.67978632 -1471.02131571 5460.2040375  
-9411.99482616 7487.15399214 -54209.9781881 -725.949905292 -1707.59987224 -2053.68816275  
-7390.71180884 1725.04958599 -35879.0672465 1351.18665184 -1620.54518128 -7823.40658831  
67521.5753547 -1972.11368848 -167533.905342 5268.84852383 3836.37498785 14938.4642829  
-15954.3632261 -6909.61496006 -253082.140496 5044.21299761 -9176.32239623 72540.9185976  
30343.6609765 -452.765326715 -243198.86811 -6111.08977386 -9920.27918098 -83757.8041914  
46100.5321659 -745.665994487 -187440.984954 -2774.88607665 1731.89825339 -40996.5280827  
58285.6822461 1777.72210434 -178840.981865 3754.768427 2045.30745127 33695.8668756  
40687.292679 31.6032341566 -193514.961428 2676.12975282 3196.79942891 47071.9754906  
6308.51616742 -7939.80285632 -218951.966754 952.109269308 3790.6592613 46769.5647332  
10.9764614937 710.329593966 -218995.605419 -1458.75570408 1897.10936826 54300.1147163  
-10578.8197603 2174.61005492 -236835.343517 -3060.25440983 2024.45051867 60346.494427  
-26597.3140443 17.6922008646 -235167.158585 -3827.0567258 1143.46993667 64591.0346159  
-55304.0137152 -9054.1191007 -230384.802634 -4146.53386003 -906.970093907 59490.0798061  
-80832.4992032 -27036.079518 -236909.82779 -3196.15402735 -3813.87883602 41252.3228496  
-24987.8914707 -4080.21671879 -206062.391368 163.567803327 -6675.09279808 -44771.3698811  
-79043.3025587 -24478.2962737 -221318.996466 3679.50947499 -2567.0442575 -47755.2505105  
-59491.1724789 -16347.2462837 -242893.219782 3434.89609172 -645.218293627 -64362.0215587  
-48391.3063977 -17016.5854373 -268287.606266 3246.27117804 1089.24210971 -74934.6970592  
1556.70434094 10918.0150312 -250166.303408 3016.84464874 2364.5064411 -64111.2144947  
1961.92791099 4386.04598696 -257304.978311 2362.54361885 2741.24125875 -54076.5079213  
4089.57198503 3029.51211813 -245590.253574 1658.55781288 2800.44561505 -48773.0719349  
6472.849254 894.858315831 -230830.526372 848.993011004 3063.08663704 -47350.5927973  
9432.72176969 -3763.00579594 -219605.452061 -290.00348 3559.67497723 -46156.6585992  
40341.2322423 4549.70311918 -188684.231472 -1767.7501653 2697.53175692 -50204.1354225  
49129.2161859 5874.89712533 -123583.897104 -8682.09696551 -5727.01606889 -192229.416177  
4520.30258104 -18319.4382257 -196549.726043 -6229.96055064 -7388.35202297 -172767.638624  
78334.6650499 3313.40939013 -105356.939835 -7231.73227634 -3727.81427444 -129669.002057  
92524.0137243 -9547.93388739 -118298.811547 -2850.44081344 -2692.64718295 -44574.4957  
95384.9608317 -14429.8127884 -126529.09905 2323.95416554 -2694.24265201 41915.7586482  
79591.1714129 -7647.18742483 -118454.279152 7535.18193262 -3497.97338984 127063.374798  
66380.2664936 10578.7102584 -113046.982825 10690.7400005 -5579.94676694 187103.757087  
33115.3882761 -2195.6349517 -178278.773639 8322.56085499 -7760.07459243 186674.280712  
23361.6285464 -16876.5648175 -255976.903178 6408.72437207 -8938.72971289 99103.9439166  
49391.9860627 -3744.97963335 -149441.507294 -4244.55478313 1199.00284715 -7702.1894772  
64509.6392836 11256.2416441 -81837.0716451 -4719.44709383 627.274399285 4860.46959405  
77021.2865938 15909.6334928 -18801.8412725 -4254.69551385 -1167.82075689 -400.407340741  
45170.7033093 -692.237494401 8019.81697991 -456.504455933 -2323.78853104 -3334.92802807  
47119.5435547 -1680.64484597 9779.45097258 21.6794656009 -2342.88242818 211.720395032  
45827.6092339 -459.914466194 7505.26531704 534.494551015 -2328.24077 3473.3576757  
42748.1595434 2643.09775201 -2483.6543171 1437.78655909 -2094.70864307 3039.01133799  
41985.4432286 6536.79787078 -29652.5886865 2663.96753159 -1457.90811583 -1519.5688973  
45922.617743 8259.0938587 -79885.5643504 3793.63301553 -503.751152139 -3637.54785669  
51866.9405248 -5371.58304421 -148621.68773 4468.16238481 1314.80385075 5744.99086405  
8378.67556698 -11933.7280756 -184781.795355 -2479.9257337 1414.58155961 -18752.975827  
9044.31727988 -11102.4996494 -156661.150102 -3130.02037014 1458.12306892 -13371.5646114  
12241.3987054 -5688.29742771 -120144.343255 -3154.53976409 1060.19374153 -5282.6542608  
16965.5941353 784.803106429 -78261.6313464 -2690.9888544 76.50195819 846.012692584  
15143.0739392 -209.16728205 -33439.6682018 -1666.68241575 -951.460858529 2148.4400997  
16813.93973 -755.70734072 -5206.96429629 -831.654377287 -1622.75894632 300.503760673  
19057.9824452 -1460.88736657 7965.17848871 -310.233533846 -1907.05412472 -625.234075021  
19891.6019395 -2004.49530446 11329.2838214 10.9865124868 -1991.18146886 101.427392906  
19651.5043637 -1372.8193701 7423.8839367 346.470251647 -1922.17825405 822.248694108  
18440.7209667 -330.943264758 -6634.35724092 916.152803141 -1630.20127255 -423.033295674  
17488.2555131 463.737847971 -35522.5839265 1772.32575903 -1007.56300046 -2005.10015638  
21389.4428533 2858.42095161 -79631.198286 2890.59733193 -63.7921043897 -1251.78648454  
18505.8521333 -2560.08425414 -119373.025821 3284.06444736 855.114886336 4852.16854578  
11793.4458216 -10366.7774412 -160844.047498 3144.94871978 1085.64838012 14727.5679205  
11484.3209151 -9851.08423065 -186437.667129 2472.6264094 1004.31141052 19358.6567091  
-20433.6951056 -4337.55609242 -117231.425401 -1309.72414201 -4940.3894316 -28674.6042932  
-43931.557747 -25405.4464402 -162376.456116 -1302.35201138 -6379.45346876 -78009.178769  
-1653.68804405 20322.5287674 -96177.867585 -1549.84169797 -5975.12172529 -134344.440085  
55851.6213689 83774.4080362 -9436.57564345 -3381.96648107 -5671.29863406 -157890.958528  
-57152.817062 -18547.1440911 -155403.021985 -2974.22544679 -7012.47033638 -189647.285365  
-56312.7618468 -26151.9713434 -184413.427375 -2896.16729123 -4968.84133068 -183245.634732  
-35437.7790953 -14508.6212675 -191927.678814 -2083.06574493 -3475.40350167 -122622.775344  
-29221.7397488 -9878.92415981 -200443.238588 -586.464157848 -2872.28583622 -30737.294448  
-25416.5503199 -5022.39278408 -194426.103292 1504.96652178 -2973.18450197 66371.9102595  
-20562.5930645 856.591802492 -157711.294166 2961.95611909 -3535.38425098 151505.144322  
-5580.32031069 19725.3487945 -108672.006165 3524.64528303 -5441.11827117 193111.371449  
-19867.9930161 4951.50347552 -127055.599382 3429.57096029 -7401.57051454 177597.251254  
-19556.1148298 -2222.06875875 -133310.838163 2292.8699217 -7419.62596149 119888.955837  
-16411.4100831 -1035.81628689 -121690.334166 1366.07795786 -6077.74525929 63019.5467004  
-11224.4400093 5194.82767546 -94688.768895 1412.89067823 -4639.38571929 21217.0456108  
-21502.1751225 -4458.2396716 -155225.780531 792.972403411 -5012.46512153 -26988.2937754  
-41416.7230028 -11221.8669885 -158096.525493 3117.42539521 -3316.77803402 -19671.1162713  
-54404.5272309 -10923.4982928 -161568.649833 4294.64081305 -1579.43664037 -31478.2588264  
-39199.0166949 2206.80706233 -159147.155279 4466.76921368 -153.599215201 -46124.7018581  
-31365.3947315 -1071.46411831 -177522.406171 3988.21867452 789.168069346 -57343.3996185  
-13230.2199053 3714.12547292 -184300.413321 3154.30429771 1266.67796929 -62208.6696131  
-635.603012047 5757.50838552 -188136.878675 2360.34991038 1219.9940585 -60431.2095474  
4030.30469594 3826.69642639 -190470.553846 1662.00787837 990.675879777 -59144.3954061  
6825.17986579 910.548278757 -190996.750721 918.093886742 863.432816278 -58766.4772457  
16575.2419531 -543.574978221 -191055.407192 -548.140637453 888.620847693 -56830.2733643  
26932.8782213 -1449.49011199 -189411.451935 -1597.30929808 6.28601972279 -48660.4354399  
30157.3739489 -1530.04502167 -188764.109332 -2124.56809358 -590.050764948 -35393.722204  
21157.4875761 -6292.96411599 -189751.645383 -2383.31454449 -276.870982554 -24530.4051833  
29196.8153732 -864.401580321 -186856.731214 2290.31592222 -589.289971201 25667.2016793  
29323.9899736 1385.34459686 -186332.238712 1691.43807528 -850.35905397 38000.7683559  
19957.7990969 -495.515880183 -185403.415261 973.210070206 -594.707763116 50015.0940083  
10789.1078145 -875.682965233 -181351.41437 154.930864885 -304.767360127 56847.2692287  
5488.49406714 577.996499749 -177764.113791 -670.71347079 80.3496753972 58917.1991582  
852.936461902 1985.93159511 -176954.371765 -1470.78527201 512.047839187 59068.2211985  
-4445.04262482 3406.62835719 -176661.81749 -2269.27366701 899.026872653 59327.0350099  
-13496.6873049 3451.716034 -175545.272933 -3145.16627451 1035.4384995 59000.7421887  
-28397.8009568 1713.6361416 -171837.807879 -4123.6751575 601.996704145 55307.0225529  
-48118.087418 -2927.54386452 -167660.26112 -4790.56999979 -602.568140123 44237.6348707  
-54190.2100715 -8657.58923062 -165118.548665 -4247.78523395 -2317.04277785 27028.1253898  
-24853.9492277 3661.47598262 -140964.247573 -2485.8560928 -3711.32234585 19531.0867842  
-4457.66121023 8381.00497607 -118576.886066 -476.659178993 -4514.83529958 20875.1193538  
39793.8624311 -5497.25876948 -180811.198649 -3202.17657243 581.926023978 -27268.548158  
-6791.09179964 -19728.4427584 -213827.45246 -2638.43903293 -7967.1203238 -86582.3793812  
-3762.29301539 -5289.5870961 -169238.317114 910.432898685 -6710.98587108 56372.7256604  
26199.1028888 -7931.49319277 -169211.57745 -3280.88261218 263.301261079 -17477.809463  
36624.8052956 -1934.30105773 -167909.515161 3222.82161473 62.3726882808 21128.4560003  
17631.2502882 -2603.64571178 -9397.68834943 4369.22484305 -710.238583276 -13829.9959916  
-53939.6069475 -18427.4233876 -202012.743917 2191.44329428 -4267.45893505 -42471.3800389  
31757.3658103 -3825.5011515 -131849.97153 -3714.70375903 334.432582388 -5217.97140245  
42439.6955344 7373.84657891 -79103.6496126 -3694.09331799 -537.982107191 3541.15477587  
39460.7519939 5957.87760899 -27267.7527218 -2515.64620977 -1504.49134061 1592.58691834  
43015.1038997 2185.20215474 -125780.846227 3802.7226287 234.17451013 2844.97215329  
41647.8645388 1256.99838706 -182150.135528 2478.46743948 468.522190091 39475.3454735  
27203.908447 -2221.40187922 -192628.723055 1555.45915643 961.728302518 52469.2159753  
10553.0648459 -3566.28817312 -200119.344929 442.039082701 1366.7100978 56707.5035891  
3364.94549949 -15431.3849274 -203191.074421 3935.24581356 -8134.6027995 116623.358105  
37537.4544831 -15993.689315 -188541.445419 4305.13351991 1147.41830165 25222.6859319  
13513.3082277 -5499.92396495 -209400.680472 -1471.93238798 3238.18739898 -41995.2538233  
-26549.8402953 -13175.4870545 -217819.366795 50.0920650092 -6387.63199804 43128.2916768  
-746.737253991 -1181.38862235 -261432.724826 -1157.95127455 3647.89852655 40764.0776673  
-5284.78008441 -2997.44428169 -288696.71611 -1734.33011374 3632.49367016 43248.5135841  
-10824.6108822 -5120.92187085 -311858.18213 -2317.05080742 3082.86988645 50459.418155  
75231.5224899 5547.54862854 1003.8651043 -2106.57627271 -2236.676936 -8060.4272245  
84233.8429612 815.828503609 4473.69092492 831.962972107 -2435.61705336 6324.80615608  
1673.87723742 -2200.09280979 -236359.52663 -440.942864117 3753.91876028 41915.5214859  
117375.204037 6206.90848308 2598.11138721 -892.073221094 -1528.91538566 -5853.32255001  
3174.84733053 -11173.5521207 -233487.576169 872.420679845 12833.8457168 28065.1344246  
3411.93805097 -1853.848297 -262905.401638 -480.638814527 10743.5261123 22965.9018318  
-1324.71433396 -2766.03065055 -299752.049617 -1085.11942714 9243.36346045 22675.7293739  
-5608.69079557 -4933.11165182 -335989.322306 -1412.21422568 9014.30741294 24457.0112715  
-13859.9706431 -12533.2631863 -380973.010954 -1925.70311145 8156.52767706 28856.0909991  
-25430.8932678 -24810.5858893 -431583.926381 -2242.70364268 2333.46078133 41188.5044903  
32403.9689673 16103.069251 -380360.343336 -3097.9002983 -10151.1393983 76292.3342935  
11758.2537505 22115.6548795 -311566.215252 4037.81026199 -2632.16039074 -72394.2535765  
4197.75774988 1980.55508906 -354537.498458 3833.49381523 4524.22700422 -48312.5685517  
-794.197219524 -547.561218783 -336199.536026 2760.60227575 7446.04714228 -33637.464158  
-909.245005808 -1626.33006529 -310817.489083 1939.37786752 8025.1038731 -28958.8549361  
-496.579068095 -3369.08281921 -285216.113159 1107.93951535 8778.37207224 -26240.121997  
5547.23728152 -1188.01298341 -251964.872925 15.9030830844 10827.9781771 -25269.0955831  
8078.20570122 -11932.0629403 -228480.518404 -1198.79735735 13124.660666 -30137.9889643  
169096.706447 66018.0464442 -29199.3434173 -32023.0831663 -7285.59265619 -160685.351792  
156346.02998 -14173.2298448 -84780.6643649 -25062.4976985 -3003.39207725 -94340.2545065  
231087.303609 -14106.4538224 -80108.4173822 -11361.4475012 -678.961311676 -34981.8062739  
252385.841438 -12386.8612476 -79513.5430822 3086.76254778 -507.990205176 17249.9014776  
229033.634675 -7545.86758176 -78522.4378155 17724.4459141 -2043.74772971 66610.7545216  
164784.583925 -3528.23857436 -75403.4370165 32111.4274932 -6229.34316992 107247.93709  
179099.445733 76234.2449075 -2829.23772981 44689.3855525 -7024.24824009 153015.923366  
2076.84021831 -57264.5838722 -345083.327918 35487.1255807 -24779.3925083 165146.873911  
90276.6557724 14658.6824711 -90262.7571137 -11826.4576623 7380.96847481 -2128.91399838  
114581.940884 23190.1142082 -8810.82536359 -10200.4465552 -1689.36175095 -3412.8166934  
112101.401818 6440.39274831 -2955.86789389 -4282.91890966 -2756.17355038 -8882.60710138  
78836.5993093 -866.25273222 7075.17161958 9.0017578269 -3766.27820866 129.464785583  
113346.043145 2191.13017526 4028.82536978 22.291712409 -2468.53506792 60.3255343593  
115721.894399 4829.50884765 3765.05412008 906.558340565 -2563.32208731 4968.94144582  
115504.633374 8441.21976722 -1573.47388604 4615.47695869 -2513.20635466 8184.67727264  
119460.835549 26363.7102804 -6389.34410859 10854.0030892 -1637.45449128 2322.33526631  
-33099.2042897 -40574.7603313 -191763.158462 -3025.34706218 18476.8172812 -21671.8182609  
-37451.0102446 -36118.7991129 -164867.585997 -3146.65833646 16099.6076021 -12284.7288683  
-32276.4532066 -27915.8081399 -137495.856306 -2219.68507974 13844.3397343 -5077.83449386  
-23900.2326326 -20077.3842774 -104791.934387 -1425.07466448 10167.2918041 1285.95232131  
-18391.6777759 -15111.568476 -69126.2091626 -898.925532508 5705.96543111 6149.38455865  
-12732.7160498 -9145.9343927 -36372.842395 -524.970541575 2340.58414903 8059.02738798  
-8903.19790171 -4471.90430851 -11548.3692601 -216.508012699 -26.4169920706 6709.38104298  
-6407.0723017 -1621.62388086 3565.4134008 -51.2701564851 -1404.49238332 3664.67884362  
-5606.40400707 -767.381261164 8411.8237286 0.546658637917 -1855.93016144 122.18871908  
-6576.85406679 -1736.9779101 3230.13514381 81.7710294484 -1416.89151341 -3440.46401028  
-9145.77981048 -4626.54567037 -12189.223171 205.943230371 -62.8335954213 -6280.8490697  
-13075.9198809 -9349.02371381 -37591.2569019 552.334144576 2289.05658057 -7598.73052799  
-18684.1814533 -15278.9245302 -70595.6954593 994.77896474 5641.03293389 -5811.33562295  
-24286.5860324 -20042.0121593 -106420.078083 1499.04445087 9984.35300998 -667.491610437  
-32554.0147734 -28138.9604679 -139446.438024 2365.91773834 13572.3192282 5396.24572144  
-37533.2705577 -36006.1502534 -166408.483083 3130.47791412 15800.1981459 12597.4916689  
-32292.1086988 -40197.3103406 -192191.85429 3027.36704204 18341.5143494 21449.2387803  
-493.188367607 -33161.7718566 -211840.01399 2413.42696491 20699.398178 24386.9461058  
10486.9518221 -9932.16910466 8790.83822206 -5421.52859715 1217.80415384 12591.9200094  
13433.436538 -3320.99353317 -11572.8938565 -7692.8020195 -1352.03075573 12094.3620605  
7630.637567 2910.29052991 -29376.8017484 -6317.2797249 -3652.47101143 -2893.55340789  
-16033.5199873 9742.77550771 -42636.9188162 -1269.49405239 -4558.34977279 -27911.7194826  
-64707.26045 14547.9828328 -44901.7906881 8710.5567104 -5131.1608954 -53519.9987538  
-153227.16552 6272.23893221 -61303.84084 21499.1198857 -4874.00404452 -81321.9811805  
-165461.642293 69076.0233892 -31214.6890302 31293.3584126 -3161.58014898 -122728.031579  
-332964.749297 -59124.0217723 -345724.756886 28618.8802889 826.639862054 -115184.352103  
-323569.097524 4138.41368134 -324147.944696 16083.2157686 2845.79224952 -53477.2769555  
-359579.892536 -968.957274866 -343078.37912 761.44685458 4600.00378076 -3681.26101578  
-324448.510952 4209.3847261 -327828.890149 -14452.8056417 3297.39615061 45895.1559435  
-324884.84896 -54538.4404714 -347512.849986 -26200.4796964 1465.69301975 110249.8233  
-164112.664 66152.6371978 -43433.3001236 -28536.3355409 -2703.91672691 131167.042722  
-157649.877939 3767.02238151 -67467.5716413 -19643.8078724 -5077.45559409 91753.2564341  
-76907.0988144 7406.47334226 -55609.7574076 -8163.88757729 -5323.36926883 58404.6096786  
-21664.5479885 7320.67086955 -45792.5512032 1277.82872344 -4625.37684449 29050.852517  
8031.07761476 3102.48734777 -27717.8228757 6301.94239228 -3567.28703113 2285.83999794  
11074.2567802 -9563.98807852 10145.9734801 5415.75254808 1293.28395824 -12744.3547116  
-353.79479917 -6542.70776405 15472.9476082 -3501.15044323 2203.34813581 15863.1232753  
-4750.88265854 -3142.43933534 22042.5516403 -1374.4295332 2785.50055327 13756.255915  
-4485.16046367 1559.72196747 32064.3341055 475.054880759 3075.1854438 9081.39026954  
-12990.2461152 182.152189047 36120.7999113 2334.77043774 2846.63597844 3274.84071195  
-16625.339095 546.916278361 34990.0900695 3610.8813516 2071.62025221 -5264.03934791  
-16353.7804209 2799.95216332 21720.8589225 3748.27334122 806.562764047 -17071.4422213  
-13872.3980426 4272.02626037 -4540.42422023 2816.64864374 -611.87077936 -27209.0845888  
-7407.23196244 6479.00090553 -37626.5897 2177.09063075 -1986.45691519 -37062.4927673  
-2431.07942167 7212.59263086 -69797.9738822 1528.69502605 -3279.47634948 -41956.6063611  
51.0687573044 5128.87631426 -98836.0892792 1074.07827078 -4392.14581031 -40634.1626059  
4039.58487895 3430.56279106 -125152.477643 880.852552928 -5668.67305224 -38037.8713157  
7529.74414908 2099.53110773 -151895.507663 141.240723078 -6651.37317627 -33670.4215623  
10064.631666 1220.84070717 -177349.853323 -430.481293251 -6744.82028513 -27211.9021731  
10943.4409892 84.163340561 -199282.769216 -673.644730054 -6015.68459572 -20047.9691593  
8284.15428438 -3459.84592807 -217930.18491 -669.037707851 -4046.04665659 -13495.3501501  
2541.83064069 -10834.3290501 -233326.748113 -712.80025674 449.938469757 -9648.07839067  
-5062.14178022 -22727.0585618 -241321.18371 -1186.51472421 9089.72046474 -13092.1545384  
-681.383874198 -33318.0346387 -211382.462936 -2457.18269809 20740.2564131 -24585.2175231  
-4446.54288838 -22534.9488192 -241907.468268 1216.66920179 9037.02956653 12618.5811015  
2967.13488856 -10568.774394 -234112.283599 721.117704652 387.794057646 9120.29035745  
7735.77412514 -3578.78372421 -219376.064013 620.095050343 -4206.93891201 12692.7280087  
9526.37909828 -403.172097952 -200849.926314 587.614332353 -6379.26016171 18744.6582966  
8093.63984695 414.99639999 -178180.28986 341.50526269 -7369.04873865 25052.0504147  
5936.87537846 1354.27542965 -150962.055043 -152.324797037 -7415.2323131 30603.8198223  
4571.45188929 4357.5453086 -120508.882533 -801.170006819 -6487.3869873 34884.3066305  
694.883250818 5646.65639928 -92318.6472308 -832.204091243 -5008.23924092 37638.1600148  
-1498.36685292 7419.32329179 -63142.2599017 -1438.21182003 -3671.09280263 39590.4904428  
-7127.35390333 6667.41042846 -32882.8717191 -2254.63877305 -2140.06233913 35848.4013354  
-14424.9601195 4543.92653256 -3873.78452934 -3046.92722298 -680.399043971 27404.3414663  
-18176.6980498 3444.20582016 20275.0518707 -4021.7924105 721.919931501 18164.3873049  
-17568.5837966 1063.01262749 34448.8292617 -3614.20401126 2047.40793521 5933.58086081  
-11710.5078637 429.817389958 38082.0418236 -2246.92242531 3028.57873523 -3322.62583609  
-6889.92955711 -576.236821069 33842.2082988 -355.956809011 3353.60739951 -9530.2645903  
-3771.0672401 -3322.65832549 25913.7324123 1542.86889528 3044.16208719 -14402.3060434  
453.510229275 -6863.9871087 17696.8545172 3478.64197533 2345.04041638 -16527.8200665  
95214.4017459 17460.8693391 -88796.4101352 12326.5635746 7834.19353421 2004.85418215  
-155681.13268 -101630.126514 -451278.677713 16785.1045574 -21282.6154703 121778.857323  
-95343.2611282 -38745.8539988 -336994.917492 -9885.75919966 -13049.6901086 -101968.573443  
61204.0187292 3374.08855776 -184487.048482 -9176.31480227 11048.0020719 -26055.1865647  
59329.4906149 1252.49494443 -187045.233312 9250.10741711 11678.2208349 26761.2361298  
4357.18330123 -756.675555843 -205444.241125 -1132.11722713 2213.72117664 59721.9210834  
-4220.70275478 1563.17873079 -226947.286588 -3614.24827819 3269.26215035 58148.1714886  
-10690.6791585 3718.13620734 -306155.531606 -5270.47944982 3056.61088287 62469.807392  
-45927.3573638 -8437.62113126 -304159.080235 -4832.39358431 -1742.62431588 80042.9604456  
-133156.143079 -59055.8784062 -338813.23483 -633.720977429 -9360.36672295 70741.3140884  
-87751.8504712 -21793.0825311 -261021.14425 4891.65331547 -6731.20614621 -61163.1719697  
-45697.0070057 -2392.41253865 -265476.35078 7598.98933107 -3868.53940816 -51205.7317669  
26811.5229301 -40542.3363635 -301153.769121 -24269.0971544 -22203.7474427 -163013.98923  
89238.1525969 31510.0493012 -85642.4404256 23781.0946285 -6106.88261683 214670.744451  
24337.9942473 -37037.4735236 -270432.590095 21661.0875852 -15852.5178428 185175.146851  
-1710.06232446 -19201.0306794 -314130.707769 17119.5590033 -21303.4309897 91898.669154  
63350.1028888 -5245.28220038 -171933.645765 -8678.13544316 6345.06478187 -17773.6323976  
37547.6142674 1501.44501904 -773.66065473 -1649.60466943 -3699.49213061 -1208.10086926  
76380.6984298 -259.865807281 5830.38395642 -689.831379542 -3968.68992651 -4954.76904598  
73246.6324932 3424.45983867 22.6534556396 3032.8450608 -4140.08395983 6106.55581322  
77770.318696 12930.9514394 -20522.1071601 6618.03918401 -2451.32504233 -657.197328762  
62443.3384107 5819.56473374 -85927.76919 7717.64762822 1033.64592445 -4936.00416031  
-2396.77410397 -14618.282879 -201960.277496 -2912.58451881 8328.4957957 -17970.5599131  
-9252.01037575 -15060.5254707 -174549.63476 -4177.24128862 7754.97576863 -15677.6386785  
-10136.6555828 -12925.8140785 -145336.659809 -4598.1663562 6722.97295525 -9358.60715403  
-5934.97925976 -6728.79529596 -113688.48274 -3804.91016627 5198.19294189 -2754.62450908  
-4346.68211171 -4853.94767554 -73652.793456 -2511.48035652 2501.91497874 2639.43059683  
-2970.73953601 -3697.6482688 -36082.146682 -1465.01425035 138.876055843 5134.01210592  
-1513.18446635 -2070.89243062 -8273.45460028 -660.657760639 -1428.2807004 4045.0882858  
-462.515028394 -1445.75202903 6988.81948147 -250.74479072 -2214.59050374 2029.40950455  
-69.660305251 -1423.89111578 11582.3598099 14.4550423976 -2465.25561019 81.2318062497  
-274.61168941 -1556.99319332 6413.01030127 258.319565313 -2224.29424523 -1811.78942722  
-1027.99656776 -2131.69059426 -9621.60963655 728.02538031 -1470.1353504 -3841.89274671  
-2557.41641319 -3697.77615106 -38191.0022901 1556.40109591 -14.2800165635 -4636.24934861  
-3159.02716312 -4260.10624125 -76742.5809584 2733.540389 2276.23285735 -1931.87325396  
-5109.83157038 -7040.34483113 -116498.760896 4101.88729279 4747.27197767 3116.65390032  
-9469.77811345 -13153.2197847 -148946.160443 4740.85249835 5991.91772789 10212.727726  
-7507.6377832 -14133.1459002 -176215.006651 4180.05163009 6999.04094182 16002.4160532  
-845.861955641 -13669.5774059 -202508.841151 2899.53386885 7948.14509845 17506.1671895  
-8368.64624322 -3977.26437636 -29543.6086555 -5013.52144289 -2532.66903575 9830.45645284  
-23486.254826 -1848.04527845 -69400.1849045 -4885.87820815 -6617.08767026 -20550.2608731  
-47089.2359825 -5758.60985182 -90097.7324863 -2704.76968875 -8348.73221515 -60301.9898725  
-61454.8773531 5295.16919666 -67942.1710863 497.668199294 -9371.25135386 -102069.227168  
-82363.1645701 19833.4603954 -58218.6859174 3547.983306 -9856.37552712 -143007.753402  
-105359.124178 22175.277709 -97679.6017539 4893.01838483 -8979.03599177 -183230.876754  
-160865.95517 -25486.3421311 -238253.716342 4375.72961494 -7201.05852076 -170922.428609  
-149412.177527 -7595.75114801 -273335.375268 2391.67418829 -6162.2622953 -99377.3880956  
-145915.143536 3946.53517608 -280225.35139 259.626707896 -4853.30697471 -14566.8416885  
-147703.665158 -2414.34392995 -276721.808572 -1611.37102546 -5374.31817146 73768.1918529  
-142403.654321 -11480.3621523 -236094.52503 -2809.16429477 -6349.58164465 157758.837724  
-90068.1171586 27833.4456392 -103535.398657 -3112.06743523 -8091.79285318 189749.455429  
-83216.1303021 14343.902767 -76243.041352 -2105.35505978 -9910.78510236 158782.989035  
-71007.9001511 -4871.96570028 -89395.019444 96.601452806 -10410.5795922 107272.408878  
-40966.2978994 -1569.85325939 -82184.390613 2850.14556034 -8340.42653611 56459.5904647  
-16511.303769 2046.48246347 -57428.974585 4946.2855368 -6335.48445841 15561.0916679  
-4317.75173085 -2380.33223827 -21370.16497 5095.83489436 -2081.39124943 -12374.6920083  
-6626.25087246 4530.2972107 -46815.272197 -1965.59418681 -3230.15659929 1746.02398605  
-5200.36017334 12062.3735397 -61019.4126873 2131.34265935 -3179.67568642 -291.792359612  
-16060.6772419 8999.48671141 -78428.0279781 5437.38955979 -2613.06239179 -4934.0338051  
-25870.1816638 5142.84611515 -88828.211813 7207.35793032 -1192.63453133 -16992.3053671  
-23991.7667952 7498.87340848 -92817.5040042 7003.18540572 -54.7529419357 -31621.7245045  
-19481.3041827 6806.21542846 -106398.964541 5715.96903544 283.429772571 -45822.1399351  
-9541.68642503 6245.36707097 -116688.716852 4119.84084611 205.311033258 -54601.2414169  
-3067.29366895 4476.34699769 -129075.103498 3056.3477831 -237.509295702 -58644.7351859  
2008.02038955 2545.88830406 -142966.062245 2182.82401283 -822.769908272 -59431.3509184  
6171.57711487 1385.79338291 -156034.071415 1183.04053834 -1597.18945771 -58618.0568994  
11270.9380081 1032.79817489 -168069.578026 -222.630458663 -2367.09169383 -54474.39507  
18320.7546624 1544.4795064 -179665.199427 -1369.71782076 -2614.64105882 -45518.0000795  
18914.3616397 -180.450632314 -191974.288965 -1920.09864659 -2886.12046824 -34051.6129879  
14437.9305243 -3666.20644959 -202455.832733 -2207.87266462 -2142.46784101 -23417.566605  
5107.17489751 -10066.7182208 -210065.177626 -2455.03088164 1168.75232977 -17559.3266311  
8185.34508736 -8126.84461806 -209451.078897 2436.40917013 800.035508766 16839.3214069  
15736.4533222 -2399.64985395 -202248.120895 2077.39040627 -2480.31991595 23245.2664749  
17666.325819 587.22884534 -191136.36954 1650.63744733 -3335.19375642 33233.9726941  
13772.8630633 740.9561494 -178072.573541 921.733123237 -3302.51135145 43612.4728114  
9077.416013 899.697793539 -162721.075451 1.7693699955 -2987.40006412 51327.8287142  
6123.32978681 1929.05706972 -146917.994307 -1012.03391783 -2251.47993304 55383.2744357  
2187.77686452 3323.90931324 -132597.243734 -1954.22943143 -1364.00890768 56901.603714  
-3849.50249291 3541.17287356 -122429.430781 -2944.60936085 -470.349818077 56259.2304818  
-9879.93910528 6425.44649386 -112195.534689 -4282.31689707 8.65642520411 53282.4198566  
-20010.231365 7694.36528867 -105281.721024 -6140.47772546 105.075533984 45291.3227405  
-29097.1185817 5529.5071061 -98300.9039972 -7441.48349709 -447.368618295 31368.3762223  
-26686.1435146 8332.49888663 -88124.4978393 -7271.29010879 -1500.55199622 16651.649591  
-13316.3189385 9400.18264193 -72513.7096733 -4741.97187468 -2382.104659 4750.55254101  
-7482.9375437 6636.16790842 -55206.6840465 -1230.92191427 -2705.32860794 -1839.67349104  
-7422.24462414 1475.35553465 -36821.6293006 2257.2470388 -2563.63560329 -6858.41615054  
68107.2651717 -3335.57526707 -167464.957874 9405.72528438 6644.06445868 15689.8058362  
-12937.7892545 4819.67229411 -253862.712279 6487.37614544 -15942.3311642 75277.1719939  
34158.6052269 8144.50749681 -244133.805171 -8776.08279502 -17833.9550669 -87812.1361696  
47123.4078731 -246.929202683 -186797.623128 -4657.10658378 2749.6367037 -43119.2266382  
58894.5946478 1958.82011402 -178749.191555 6506.77317392 3356.7519292 35203.6406508  
41590.8353506 948.004870323 -193084.702995 4617.74712381 5100.04916295 49359.1600428  
7060.58024374 -6901.23785033 -218033.86651 1437.73678305 5693.49460045 49690.7230864  
306.011125638 636.331538783 -216000.824868 -2432.25320864 2738.92411997 57964.0592315  
-10556.0820819 2776.01689316 -232474.454855 -5165.56868716 3369.91800487 60975.9401504  
-26201.3161506 1561.4966727 -231468.148397 -6790.73590834 2374.22898307 63401.7548704  
-52997.1310498 -5342.48083103 -227921.175977 -8274.39767212 -555.900363022 57364.5628573  
-77080.6607771 -22047.5250613 -236206.366298 -7949.71888113 -5946.84170283 40061.5874728  
-21875.5652211 -186.817853302 -207377.710989 2084.38949195 -11038.9315315 -46629.3540193  
-73890.7550373 -20661.3844715 -219473.972024 7819.17687396 -3657.30113594 -46206.2622343  
-56217.5452389 -12293.0606961 -239566.96459 6490.66455916 -299.598557485 -62646.8939799  
-46339.7078217 -14428.8445135 -263540.827016 5681.72626855 2544.80944648 -73951.8981586  
1751.07092356 11761.9841306 -245328.186857 5025.98528153 4179.20301817 -64100.5604167  
1597.16011984 4327.42617473 -253019.645352 3859.8651841 4209.73431947 -55701.3969629  
4005.05121438 2908.62194936 -242174.013999 2728.66699257 4066.8874446 -51719.5443593  
6603.8852928 1056.53031158 -228745.001381 1511.46516071 4437.45993433 -50952.277396  
9685.795356 -3304.93599213 -218858.263919 -315.684034727 5306.36169566 -49511.3641549  
41845.8246143 5646.82660138 -187502.870526 -2823.96580169 4200.47276884 -52755.7350858  
49353.297297 5001.79229344 -131598.049122 -13588.9275579 -8936.93028356 -200694.380713  
6164.35797016 -16730.4655526 -200027.441245 -9835.83364383 -12895.6397079 -181548.214975  
76988.6948467 2237.34627635 -116148.417384 -11024.8402799 -5710.61671201 -136433.216437  
90503.3616095 -9488.51915826 -129887.14426 -4148.87636217 -3926.96680925 -47388.9769708  
93816.7656989 -13592.0817099 -137243.71921 3446.56287196 -4040.96967009 44627.8304793  
79815.2416357 -6918.09433332 -126018.764163 11538.3486583 -5275.58934154 133927.43409  
68190.7049831 10675.0171988 -118229.191871 17331.6127577 -9120.57957498 195339.07485  
35245.3917268 -170.0493551 -181020.586637 14310.3414411 -13756.7592727 195839.251475  
26554.2821757 -10815.7384699 -257227.224753 9479.52532829 -16193.3235185 103996.887492  
50157.6755882 -4428.79007056 -149212.867314 -7178.56573824 1765.42756437 -7857.48658635  
64276.8016736 8448.74849537 -82003.8414779 -7563.80753715 559.490192284 5479.94113251  
75301.9177633 12354.5892394 -18719.5862478 -6185.86090087 -2733.35580083 1138.2327516  
40328.5486694 -683.488989328 8779.99194841 -492.592479246 -3727.03442918 -2262.30099673  
41905.0763431 -1469.80464007 10670.0013849 15.502313407 -3642.63868997 144.622738438  
41053.1921644 -529.745604857 8234.98547719 585.402378432 -3773.76767393 2286.99487752  
39129.9673951 1905.21836643 -2213.60225776 1837.59688242 -3711.27917247 1160.02956459  
39971.6119332 5130.04404484 -29879.0546746 3814.09123813 -3016.13799472 -3514.40278749  
45530.1574012 7204.80204116 -80490.2331851 6007.66481093 -1434.94839466 -5203.43908639  
52943.4341334 -6076.15160419 -148085.124711 7599.20840047 2031.48334241 5845.21079328  
8057.70266984 -8911.82035329 -184380.119604 -4231.83072644 1738.04060698 -18129.337025  
9052.34470004 -8772.14784568 -157043.841839 -5392.92350311 1962.79282548 -12226.126679  
11947.7059153 -4420.71503199 -121093.420311 -5403.21524111 1423.64633077 -3659.16036015  
16421.3192723 1360.87090188 -79728.4191146 -4455.38894395 -294.370171982 3090.39581647  
13308.3571133 8.57960167637 -33937.5841481 -2498.1442482 -1891.74473925 4291.21022319  
13822.8716592 -456.250225735 -4856.28476548 -1131.80760779 -2782.32424342 2098.67619247  
15276.6970042 -1084.64407647 8867.42273987 -394.80231965 -3061.63832926 363.701855036  
15880.5714026 -1574.8782074 12433.0780402 10.3727955366 -3138.09722192 47.2053008503  
15885.6570583 -1004.88848353 8295.23597495 439.459165163 -3107.92387236 -264.245875895  
15455.9790669 -87.3719138174 -6355.38476416 1252.73296834 -2822.12110649 -2282.30714476  
15648.3137133 529.816773219 -36065.5006539 2644.3776072 -2026.89787075 -4177.85676064  
20544.2246258 3021.06140303 -80574.2875406 4729.5084242 -598.135231561 -3415.46582647  
18249.6080386 -1637.99173536 -120534.187274 5616.66460731 996.910581331 3341.32291774  
11714.0833759 -8541.91371128 -161111.854863 5402.30593487 1324.6454514 13821.724094  
11159.0162315 -7288.68225815 -185809.72711 4215.0154354 1032.2924625 18961.315934  
-21106.3722109 -4794.8907023 -118131.252392 -1824.52084244 -8196.44020773 -31638.5215143  
-44209.5752469 -24641.2709056 -162317.83097 -2223.41691889 -10714.4336067 -84013.7085347  
-1890.6797407 19673.2319167 -96911.113243 -3042.13119641 -10135.8812855 -143359.581775  
57328.6362237 83485.0527487 -9404.76555656 -7466.21998827 -10333.9674729 -168324.382082  
-54512.5743214 -16415.5397338 -158046.190377 -5405.58417621 -13477.9245322 -201150.691681  
-52955.348405 -21969.0822568 -191721.467744 -5147.14401964 -10135.1166937 -194239.325587  
-31383.288826 -10143.7524329 -202640.474557 -3944.97524304 -8465.58617129 -130503.209836  
-24747.4750575 -6177.22237397 -213558.943436 -1214.26444233 -7801.55079044 -33001.6758933  
-20602.2379521 -986.195051144 -205659.421592 2771.92145152 -7957.36066899 70706.2733368  
-16657.2697587 4218.03463234 -166641.612219 5172.65571942 -8146.42559479 160664.64976  
-3266.94319883 21130.3926479 -114135.19592 6262.92286922 -10604.6978236 204508.842953  
-19331.6734904 5143.94667784 -129688.677336 6503.01080756 -13451.7850039 188427.890135  
-19577.8195754 -1401.43644853 -133352.281446 4113.83382502 -12672.7895914 128184.827686  
-16825.5763305 -1098.98658719 -121141.247015 2049.27623577 -10047.4950383 68259.7540541  
-11819.3263632 4006.81355247 -95207.8875964 2067.63126453 -7634.9831477 23898.8028288  
-19171.1774419 -3885.00511986 -155738.791841 2227.22613827 -8374.33575505 -28712.6915238  
-37758.2717987 -10489.3256832 -158113.110168 6098.42697085 -5582.88203037 -18969.418403  
-50149.0814948 -9840.31644392 -160221.391522 7969.43907755 -2420.54653108 -29736.313381  
-37113.4542558 2596.44473292 -157177.099386 8024.10021313 -31.8676441459 -44395.2911753  
-29269.7947634 -104.170329075 -173870.996212 6828.50120558 1385.03946959 -56630.3035186  
-12565.8757969 3798.47846103 -180790.515227 5186.35603006 1990.82798977 -63114.1169741  
-534.850248033 5325.36346283 -185048.479738 3858.58013809 1808.3531162 -62941.4435257  
4221.13711442 3378.57193895 -187978.127669 2757.706318 1350.80625268 -62892.1197366  
7272.23805953 712.387382708 -189166.338198 1660.91519233 1147.84493869 -63139.470723  
17318.2529975 -448.112523222 -189845.013818 -819.228826439 1269.05957035 -60859.9724936  
27769.6922356 -1196.52521104 -188080.225898 -2562.03744385 4.98462401628 -51936.78761  
30957.5133365 -982.005763855 -186924.616418 -3465.9564596 -1033.76812264 -37532.9592126  
21574.8807706 -4940.80669084 -187917.240243 -3953.85835994 -826.412497867 -25310.3148554  
29754.1828276 194.480061241 -184656.242239 3790.01995075 -1335.5996499 26765.9854282  
30195.9049077 1747.3178562 -184178.179064 2691.19414294 -1368.39228471 40538.7883949  
20932.0577141 -204.697088801 -183546.933257 1460.4915358 -901.552964189 53711.9161249  
11650.4520669 -844.639086927 -179665.326244 127.877393871 -570.099016983 61191.5073785  
6118.76541957 249.535434986 -175906.024499 -1188.17535998 -17.7984684216 63319.7033013  
1266.2364531 1448.2519932 -174635.607572 -2452.16866389 675.567618364 62926.1458776  
-4076.95558659 2900.04554511 -173812.228338 -3734.34919829 1334.59018395 62025.1598089  
-12954.0414267 3156.18046759 -172463.757823 -5232.56830336 1639.16689977 60038.8224994  
-27247.8035625 1809.7059537 -169221.143233 -7110.87561953 1085.77815282 54525.4441497  
-45361.1196418 -1992.77061494 -165793.585346 -8758.07442724 -751.105836643 42388.7324711  
-49840.7063114 -7235.29266882 -164020.1798 -8394.4401053 -3705.05992939 25636.7654214  
-20638.0607172 4438.43708175 -140423.149375 -5115.19566697 -6120.33021033 19699.9035165  
-2119.42786114 8290.72766829 -118563.683168 -1253.58346394 -7465.51983168 22466.0523971  
40752.6113707 -5024.34561247 -180002.682757 -5346.753934 852.881779201 -28491.9609833  
-4092.30570579 -16945.5029605 -214556.930948 -3547.9046454 -13652.9546881 -91977.9639011  
-1301.1775916 -3535.79894706 -169217.834461 746.116094889 -11430.2414244 60434.3027299  
26870.7991701 -6849.40293507 -168452.917323 -5514.02139044 96.9360284351 -17511.8542747  
37413.2931463 -1299.99657973 -166845.893523 5383.66699333 -164.634239895 21668.4827932  
14419.1681797 -2921.23801752 -9618.00301 7657.27667805 -1226.59512183 -12725.7427161  
-50402.9396095 -16168.7202071 -202824.208895 4797.59553182 -6808.26556902 -42321.8400047  
32145.2672675 -3676.85719923 -132102.649862 -6215.22645534 189.375899419 -4406.95094437  
41949.6687682 6495.62841148 -79806.2446774 -5865.96720908 -1496.08056577 5198.15162828  
37359.5621152 4682.57242177 -27502.004317 -3604.87246794 -3064.51545878 3651.21130565  
43585.1657945 2145.37699115 -125812.376941 6405.35443971 -53.7866891206 2141.55547642  
42266.2492618 1387.83852086 -181335.768133 3995.17813972 795.715045026 41649.5664677  
28019.3875602 -1844.32916306 -191725.671086 2407.86644816 1424.75867331 55825.9800593  
11514.2139548 -3104.88138767 -198757.366322 552.426889354 1859.26237892 60747.0334767  
5838.0243743 -12312.298272 -203670.179969 6091.87973027 -14171.2447891 123744.98855  
38907.2573969 -15714.5799544 -187808.939146 7556.48938097 1971.18970259 25981.5119325  
14370.085623 -4567.77489985 -208800.145959 -2289.22087824 4630.52584679 -44264.6571026  
-23425.8867037 -9387.9804328 -218678.334872 -1804.42714272 -10983.1821582 45160.7041393  
-653.004264128 -781.747279881 -258056.555669 -1939.85915197 5405.92618701 43684.7651558  
-5395.0010853 -2373.12674055 -283952.606502 -2767.25893599 5700.92220835 45066.6721094  
-11413.8324636 -3562.12325951 -306902.471366 -3798.09865508 5357.59768548 50623.3881685  
71227.5630009 3410.20322537 1311.37850158 -2632.93090905 -4120.61600581 -6215.21730688  
78454.2724294 285.046469674 5579.57695486 886.919373743 -3985.46573946 4961.73625653  
2245.05939962 -1385.26646076 -234335.792555 -887.937104124 5427.64130682 45183.0386464  
114051.369635 3633.98729753 2915.38241004 -804.689559994 -2650.98640874 -5092.14818036  
4642.55661239 -7550.35039143 -233842.638565 680.875695527 10539.1935006 31454.9244195  
2677.4371634 -1026.68471844 -261206.222081 -892.541662258 8365.24168901 27979.8855946  
-1490.22186415 -1545.37058626 -293815.972692 -984.436785491 7149.74689164 26883.6587936  
-5038.52335426 -2940.5981403 -326292.881815 -1042.37788452 7514.57181446 27577.873373  
-14335.1543541 -9627.857607 -368882.680156 -1376.70986323 7998.75350053 30064.3088129  
-28737.202856 -18078.484899 -421164.263412 -2110.61578953 3979.19639375 37962.4183971  
29240.2442614 26394.9457501 -379038.843936 -4524.98964857 -3199.53240855 71342.3016196  
8911.81759986 20929.3662403 -308379.374145 4597.75894381 1722.33865694 -68222.3311946  
-36.4267818248 3177.22621446 -343892.154625 4223.46352908 4672.82242243 -47092.680932  
-2401.30640107 30.1095429085 -326258.411004 2578.60337772 6237.5509341 -36017.9847495  
-1155.90033766 -830.350081741 -303033.814405 1768.84742419 6122.22967403 -33088.9433515  
-933.791492627 -2464.64126784 -280530.647651 1063.44833359 6534.64240899 -31229.1356558  
4740.19602976 -370.150157836 -251280.869243 409.534464844 8343.73596051 -30512.4890736  
9289.23371358 -8620.22573923 -229393.94867 -720.264007938 11066.3892029 -33428.7788979  
170394.96592 51546.6606312 -40437.9459769 -26163.6085285 -6789.69476208 -169807.987336  
152933.209492 -16621.1956866 -90241.0295356 -18385.0721461 -197.152948725 -105002.383209  
217220.718765 -19839.7561963 -87228.6640547 -8288.66151651 1375.11864692 -39908.3407402  
237634.096426 -17127.8550519 -85871.4274941 2378.18853853 1546.90737662 19845.2327285  
220173.958268 -10735.6227573 -82093.5040243 13666.7690095 286.03147113 76100.0751633  
170698.988194 -3381.59943917 -73247.0298064 26524.514696 -3993.31335848 118522.110606  
184373.752175 64103.2298673 -8974.96516183 41263.4200311 -7228.02591773 157250.110323  
14219.0450102 -43250.5499647 -348020.301992 34454.538165 -31036.1996714 170471.739159  
91290.6141257 9901.40196233 -90047.1288842 -9949.44259247 7515.35952159 -1896.59835143  
111933.237355 14591.253642 -9065.41095202 -7291.2415404 -2461.86782157 -1658.8451616  
106852.747432 1935.7630548 -1551.50625474 -2774.75182197 -3348.34939707 -5730.37967984  
67019.0255669 -752.564893547 9278.38178704 -36.2759483006 -2825.30438053 32.2356968387  
105146.779064 39.5904340004 4327.06752395 -15.1837600474 -2057.36925297 23.5838854867  
108506.604412 1340.88109144 4065.41741487 103.614447668 -2289.6197022 3565.99627508  
110995.171283 3365.16756433 -418.186140035 3128.55717327 -3026.66357037 5051.21757175  
117062.400131 16540.5983011 -6856.42829374 7954.78963346 -2463.39044418 888.444762393  
-23208.3836104 -10237.2019584 -183553.633408 -2692.09194882 21820.6834306 -17553.5210147  
-29954.5158647 -11774.8592398 -158847.514284 -2817.91470971 18639.9964974 -7995.32789261  
-27856.144862 -10092.6200123 -133165.753826 -1696.97950502 15121.6582216 -317.871847091  
-21118.8655768 -6946.42258782 -107154.210277 -456.121781635 11981.3697952 6893.53515597  
-17873.4608607 -7056.12172613 -70381.1854232 25.5904586768 6717.26179738 10864.969305  
-13667.0063352 -4380.85422603 -36344.5850813 32.1602120982 3010.18037257 12152.9595153  
-10764.357966 -2342.96845478 -10251.1330951 84.3157606436 338.317414056 9613.4288781  
-8779.21504444 -1121.91640294 5720.26941778 86.234530123 -1250.24587313 5164.61132218  
-8143.46122688 -804.141194831 10875.3540082 4.72261686059 -1767.65062614 105.200206745  
-9008.41049157 -1234.59388108 5351.46739854 -32.0277879613 -1266.26110873 -4977.9704974  
-11046.4351708 -2462.69359927 -10927.5011457 -97.5253813719 286.76487479 -9211.88268003  
-14085.4186681 -4546.21767593 -37614.2429004 2.29718615361 2905.38303822 -11710.702695  
-18181.1306459 -7205.39309841 -71846.0956287 116.345841959 6574.44621141 -10529.5623871  
-21498.2813938 -6957.47359883 -108866.073639 569.401807654 11635.6447353 -6274.36004393  
-28067.0235274 -10309.4283251 -134753.083085 1883.16193631 14624.3362638 675.089454671  
-29987.9589991 -11712.8034395 -160250.705198 2772.07418666 18099.1271835 8328.33407158  
-22359.7554344 -9869.40130175 -183867.880471 2693.06655556 21578.7264655 17349.9748034  
6329.93629096 -1814.86032614 -204812.338339 2458.69494372 24541.3204431 21104.8707422  
6573.47470177 -5854.97450335 8096.07935803 -4613.13244069 948.850403081 13438.5177192  
5626.41816551 -3720.35057727 -12410.5961311 -6900.77552091 -1208.55199584 12550.7907255  
-6091.79683047 -1962.48847764 -30260.3764691 -6303.65954154 -3558.43566281 -5086.66851328  
-36308.6529139 29.6670722402 -43598.0876551 -2953.22998226 -4425.39258269 -34429.0138687  
-86278.325726 1550.80895363 -44470.3810503 3625.18452649 -5259.14476749 -63108.8988619  
-156436.634012 6854.88384934 -52788.3489426 13183.9102189 -6897.05492058 -97641.3154339  
-171412.591166 54177.2079088 -52707.1896536 9633.71895258 -6385.74997827 -139562.573447  
-271456.157907 12146.2509407 -309209.645178 8311.42107865 -17842.5752232 -130579.837339  
-270639.252221 53035.3615456 -324818.887228 10122.4310362 -17208.3571348 -66125.1917233  
-289736.324937 60022.1202667 -337003.639168 531.67866302 -15974.8587414 -4872.76769005  
-270682.875424 53182.8237201 -330277.406538 -8984.76506794 -16558.4463154 56710.9319228  
-264503.444104 14957.2024055 -317012.658441 -6765.58432391 -18049.3929528 125671.299023  
-169112.181755 54010.0509556 -66359.9733349 -7059.22196535 -8216.57179952 148992.130406  
-161227.195113 5278.51727748 -60240.7713803 -11224.2586243 -7562.43680072 108570.211419  
-99161.1284041 -4526.88979262 -56577.3333224 -3177.48432553 -5646.95670754 68879.5289023  
-42588.977118 -2300.05931718 -47917.7342821 2715.13448418 -4360.72483642 36120.2949058  
-5541.19793917 -1651.96642812 -28496.2205304 6213.74400309 -3386.81187073 4429.31579159  
7168.69963941 -5466.70977697 9394.1774507 4628.84082809 1055.60803117 -13592.8603819  
-2974.93195526 -4169.8727669 14611.9602692 -3107.30680091 1929.6620639 17762.2605948  
-4996.84637806 -1755.7829169 21387.1917496 -1367.73282157 2452.76648239 16385.7506676  
-3078.7855129 1597.14473763 31492.1511003 90.5353932252 2742.04624631 11962.5662729  
-10757.9438952 -964.177691303 36214.2736963 1893.713996 2419.21412713 6076.27230409  
-14351.7721181 -1944.70207987 35958.8709608 3148.24777427 1830.20540518 -2773.31452212  
-15015.8942081 -799.690797677 23312.6450718 3135.49369854 813.547548201 -15655.1559076  
-13832.9017622 709.378916022 -3390.93345166 2171.83779328 -321.239595254 -27461.2784441  
-7831.98049223 3412.73951935 -37848.2839206 1588.41957514 -1235.77622562 -39598.8412344  
-3087.06040621 4207.26175348 -69268.7512661 1265.03173311 -2071.1188338 -45506.3270878  
38.4978107357 3288.87677921 -97943.9275867 1056.83515446 -2971.3909587 -45708.7784089  
4723.66555894 2962.57198662 -122704.17609 997.661655064 -4077.49414857 -43630.9692049  
8738.79571002 2645.11895717 -148231.870475 136.864726358 -5055.47373211 -39238.5392321  
11409.713737 2379.81928528 -172356.565865 -535.01843772 -5182.81373656 -32032.0614435  
12136.8298706 1629.30195065 -192823.017067 -767.821575133 -4820.85575439 -23689.1607661  
9197.70567492 -1072.72066668 -210109.527712 -645.515418568 -3696.52835049 -15675.7923711  
1569.84806129 -7829.42066271 -227436.221463 -464.197671479 -866.236948054 -10005.6527072  
-9624.62426133 -18282.4964812 -245271.107689 -831.02189583 7634.19888291 -10985.8663911  
6103.75007091 -2021.63580029 -204369.94349 -2534.54469158 24657.3527928 -21281.7013243  
-9094.14008803 -18155.6919771 -245927.810369 872.81049983 7551.70834671 10531.6924782  
1946.36063241 -7528.73762275 -228250.921381 448.796750044 -925.682763328 9467.19549977  
8506.82397994 -1126.67647248 -211664.291521 575.274699191 -3854.44364638 14814.6853266  
10473.1773434 1220.59533466 -194586.718805 672.036692086 -5176.98264405 22191.0594712  
9143.58328354 1600.36557152 -173443.021853 458.87281785 -5789.01559805 29522.5224905  
6958.68167642 1920.2521365 -147449.254691 -90.6293973985 -5741.06413095 35725.7796318  
5351.59145676 3628.66452335 -118102.953857 -794.181994849 -4836.1173973 40152.4835645  
794.799960059 3373.19796267 -91015.5904756 -674.698270799 -3438.88722125 42128.6639  
-1759.98278757 4421.59364546 -62988.9279955 -1058.44032037 -2405.04548182 43257.2331033  
-7385.88187859 3428.2210811 -33158.8962873 -1592.03397699 -1390.76547933 38157.9666945  
-14184.1637575 1001.65371776 -2852.68571628 -2397.27475596 -398.422887783 27503.1623865  
-16432.0774728 73.6254155887 21812.2007884 -3416.76519373 718.574208163 16631.1954045  
-15078.2865786 -1280.34368415 35392.3864034 -3062.79750087 1879.28487858 3413.21085677  
-9698.67038365 -787.222954046 37981.1586234 -1748.43322248 2716.59966516 -6259.7048956  
-5862.76190089 -443.958727439 33038.3641512 -30.2314639145 2971.28479787 -12368.8111527  
-4429.30534407 -1928.595448 25056.1185078 1523.51442911 2620.08827909 -16808.8531289  
-2174.832838 -4218.97495765 16874.5465776 3077.15907505 1988.66128852 -18322.2851227  
96405.1792629 12535.9235722 -88502.5654088 10802.6068549 7792.51681789 1824.61921325  
-156768.512355 -79460.0295305 -455410.043089 12855.897019 -16992.8412257 121761.543736  
-93197.5204612 -26870.2256464 -337976.456659 -4543.26625466 -7466.29459853 -102551.552413  
61577.9229027 4293.7433718 -187446.935036 -10168.9585643 9569.89420485 -28094.0222953  
59392.7215486 2237.70216018 -190240.548671 10523.8326201 10356.3178952 28801.5169477  
4656.58436477 -822.970129819 -202305.637348 -1158.71378775 1371.91258356 68914.0887505  
-4286.99457464 1889.60652034 -220146.375943 -3179.74253593 2588.18684674 64119.9601145  
-13327.2489181 5738.55395781 -295502.810983 -5599.33893812 3964.57946005 60333.9228248  
-43729.6272692 -2212.81592437 -296029.797186 -6479.30277794 1859.10228384 73673.7037603  
-121663.647384 -49084.1190363 -336155.591911 -6140.39617227 -6257.67902712 65919.5819268  
-71993.2711188 -13267.0331331 -255435.204915 10056.5479033 -3260.91715395 -56288.9292625  
-45783.7654394 -145.945947271 -262911.009786 8888.28583768 -1379.94955152 -42496.0737349  
41332.1318219 -33154.0065867 -304517.840365 -20615.2161703 -26861.3855784 -172261.783676  
85834.7874999 22697.2679407 -100495.243563 18712.7478703 -1150.11043272 229708.463979  
38356.3546346 -27915.1425014 -270369.685055 19874.1903265 -16914.7937454 199204.803791  
5204.56791998 -14960.6950021 -323107.498043 13437.1296921 -23115.2515909 97368.4395945  
65379.6600438 -5108.71225436 -174361.362346 -8502.3201625 6146.09069994 -19268.3692777  
29574.297131 1054.89637104 1220.31906317 -894.988521006 -3481.8925521 2654.08416268  
64621.1291836 -496.925647451 8150.04283526 -206.622782495 -3213.0102019 -3098.03606168  
63357.1523141 1790.32792011 2362.29069481 1675.30836107 -4435.37817607 1741.11407558  
71718.3262036 8823.56711573 -21067.9722691 4181.87584393 -3473.16152924 -5889.3532526  
61784.906753 4662.30606219 -87472.0392316 6029.89977691 197.974660573 -7509.1583961  
-7599.76042105 -12150.8898382 -206845.517931 -2854.45029242 7329.38113301 -15165.3701236  
-12216.9294805 -12051.3049376 -178429.530611 -4212.16646715 7031.42133016 -12303.9532015  
-11895.698241 -10094.37592 -148723.4027 -4689.61115162 6248.93504176 -5272.77487196  
-7789.74358917 -4950.47560397 -117403.418939 -3891.17007181 4855.9916466 2174.17071455  
-6825.05670552 -3184.42191465 -76649.0609775 -2309.32478007 2232.9382698 7819.68340759  
-6788.62109788 -2442.668918 -36879.7828416 -1200.90835019 85.4433466505 9697.97542516  
-6003.6986655 -1235.28308134 -6946.36352358 -563.256791345 -1264.31866899 7405.21456707  
-5308.45322278 -871.752815916 9637.1630894 -242.614502868 -1912.60434137 3765.43271099  
-4994.83894906 -885.232162897 14692.4890204 20.1655208144 -2110.99147743 18.4210020458  
-5151.39969422 -931.365240627 9038.9899407 246.407721605 -1918.85601108 -3661.58829348  
-5616.90700024 -1280.52255699 -8360.64867523 625.719366886 -1330.28091704 -7319.16613683  
-6362.71474344 -2419.37475846 -38957.7309143 1270.36027234 -123.510855532 -9274.84423031  
-5425.26112519 -2533.83528502 -79920.3144465 2558.86307015 1891.65684942 -7266.6423448  
-7228.18610453 -5618.64684918 -119604.882449 4182.09931355 4253.22385612 -1592.09839507  
-11272.2789487 -10594.218369 -152095.920816 4803.86610062 5417.6454144 6298.74467309  
-10452.3530988 -11537.9701978 -179787.294716 4202.82674344 6154.44453243 12764.3003001  
-5965.50141171 -11396.8758188 -207134.327138 2855.1678959 6871.67390584 14786.8561202  
-13159.36551 -4017.19706394 -31025.3628544 -4441.79636838 -2123.61731082 11032.091123  
-31955.1698504 -5023.41544944 -72038.0503611 -4339.3886032 -6141.81423736 -23742.160736  
-58679.4806776 -9230.29084625 -91405.9849049 -2687.18869192 -7750.43944619 -68550.8892703  
-71271.8956458 4175.43432198 -64901.7823124 -1056.93899708 -8921.05014952 -116012.951172  
-88648.4767276 18139.4947757 -55990.5784537 -906.128923472 -11704.170485 -166800.466022  
-106205.29836 24946.2341993 -108757.558336 -533.042193969 -12930.9080958 -212755.316518  
-150150.056021 -10967.908897 -264946.933428 -769.808932783 -16718.1949029 -198830.269894  
-130398.779742 7654.90069097 -314811.557748 -1201.05764814 -16753.3023027 -117868.80105  
-121723.99123 19608.8091739 -325156.54796 -224.814061285 -16820.5800891 -17233.8470357  
-126995.549217 13065.9133233 -321208.741141 1054.80449933 -16193.8546967 87560.838993  
-127879.49449 4000.00360993 -265521.750041 1544.57655951 -16117.6227933 183250.102469  
-88712.3778606 31695.9425417 -118357.051603 1748.45310238 -12262.4550238 219247.441081  
-90246.1392366 13299.2570625 -78506.1090806 1951.81102719 -11997.5006553 183589.930017  
-81514.2324576 -5743.89707901 -88745.8824935 1334.09087067 -10361.1580303 122264.765944  
-51592.8351235 -5118.73932787 -83238.0641507 2630.69593147 -7557.4409118 64453.3891715  
-24107.0436622 -938.442987024 -59092.763385 4345.93221355 -5648.03459371 17961.3275998  
-8964.18811947 -2288.44602148 -22484.8373688 4601.24638562 -1738.82984794 -13800.4065042  
-5905.83752182 3876.19784641 -48200.2557934 -1715.51220412 -2419.21819886 3949.13724039  
-557.576013829 9718.22214363 -62482.5068816 2173.96750869 -2529.57353132 3663.02878532  
-11024.7278969 7019.97558574 -78216.6022216 5243.64480012 -2433.67680964 5.35310237334  
-21475.4360899 2542.05809838 -87589.371854 6693.24307981 -1099.40127217 -12677.4555421  
-21815.7926696 4679.01867249 -91194.4715831 6366.7405767 37.0647489838 -29688.9793961  
-18595.1183905 4905.12073006 -103406.471989 5091.08262488 143.951825328 -46435.9871905  
-9791.50682186 4778.21499042 -113886.357926 3661.84983784 69.0908306363 -58079.2713968  
-3256.42691859 3562.5451086 -126274.653896 2801.29598044 -308.235033591 -64488.5384582  
1931.85141255 1833.28801709 -140533.760349 2124.50630515 -701.01447285 -66982.81666  
6588.81310845 1008.11820217 -153626.802689 1340.95208134 -1401.51948771 -67190.8905952  
12529.0481728 1002.47548386 -165013.244465 -122.642089604 -2082.56801297 -63072.1629489  
20227.8377065 1939.76045937 -175504.973203 -1314.22555733 -2000.44051759 -52885.4897586  
21008.7013556 851.536753334 -186211.883372 -1802.23267578 -2381.6014556 -39424.0687219  
15994.5982169 -2015.37183597 -195649.17846 -2021.56198857 -2232.47591338 -26292.9758126  
5325.52369496 -7072.78946392 -204382.742883 -2283.49260487 -208.637443648 -17577.6022422  
8444.11407566 -5336.15849432 -203552.798314 2215.904041 -540.003837797 17071.7098966  
17363.5575876 -627.852733336 -195143.260335 1921.92213204 -2511.74052654 26356.400365  
19576.3036145 1601.44550541 -185199.182315 1571.20571063 -2735.48437496 38677.8176128  
15416.3382144 1331.52033194 -173676.760902 822.587913053 -2523.13439755 50890.6956756  
10180.9814998 907.080788501 -159586.792369 -81.6475622026 -2393.13521019 59549.6199599  
6757.19821994 1343.41670841 -144417.520037 -1057.04902614 -1827.47476206 63568.2012664  
2496.49474026 2357.33728267 -130189.304948 -1820.91582554 -1137.08168626 64195.609797  
-3764.52764364 2448.67351745 -119766.928326 -2605.34454762 -431.506773516 62017.8512404  
-9845.84474493 4766.97698526 -109506.212881 -3716.05235974 -124.611702757 56645.5580156  
-19216.7256392 5338.59200397 -102656.439924 -5426.64337489 -46.7884541024 45590.0273898  
-25982.3602302 3452.91538431 -96643.402698 -6943.05670517 -448.50149921 29093.8868654  
-21062.3192389 6157.24855672 -86660.2570803 -6776.90032115 -1302.79622209 12220.9937308  
-7621.12618923 7779.98337443 -73009.6467498 -4273.63999198 -1921.4360479 140.355305822  
-3979.43064421 5705.72672011 -56501.6626137 -986.751771793 -2131.40102268 -5616.83400754  
-7771.16144638 1223.16963902 -38293.0695172 2143.08107283 -2050.69145186 -9215.53694734  
69362.19426 -3714.57594422 -170497.579605 9573.89069335 6396.70010608 16898.9657189  
2357.22615599 10940.4629571 -255837.323952 3473.14577846 -14315.9136144 76445.9099064  
45282.7419061 7376.68618497 -250532.698099 -6363.11901531 -18672.199249 -94192.1364587  
49096.9676308 -441.956037286 -188351.960273 -4458.47940428 2373.19079914 -48210.3442195  
59809.6952279 768.989150878 -182138.299263 6593.64586621 3039.0461738 38914.1003922  
42434.9624096 207.959093735 -195296.810415 4498.96326369 3952.13843538 55349.5290075  
9493.06114048 -4868.66427195 -216365.861419 1111.44322038 3924.20955782 57450.2101998  
403.123019787 669.487999386 -211022.760345 -2197.34518982 1985.06597353 65980.0734995  
-10973.7922917 3434.19646141 -224198.957725 -4816.40154103 2940.52575505 63915.0906148  
-26222.5485443 3021.45026564 -222878.704754 -6725.97054337 2652.64590697 62013.390287  
-50399.4135994 -3466.10149066 -222242.389225 -9160.19205433 641.726756785 51817.1790266  
-64712.3698392 -15958.9591243 -231214.441096 -10943.3696866 -4876.58333096 34692.5374685  
-8655.43472264 1942.37960796 -208305.188569 3944.35877172 -9308.77977389 -45485.1094533  
-59664.6632696 -14059.2217382 -211394.922439 8825.91720051 -2529.53790001 -40675.0282942  
-50594.1475549 -7774.98683264 -230428.539509 6216.51783965 706.400504389 -57476.2475313  
-40625.8611253 -6537.88676415 -249712.8421 5424.9493652 3006.04696904 -71666.1725355  
-43.027715648 12289.365133 -236511.332157 4779.72708029 3942.32214664 -65793.4264924  
1127.64352914 5158.84406771 -244588.958652 3415.82214964 3272.04983418 -60684.0291965  
3960.2348523 3174.87672055 -235974.0676 2400.03524946 2947.45567876 -58812.8690826  
6790.72093544 1172.72505034 -224787.407378 1484.01257231 3257.19235674 -59313.1304481  
10089.4579355 -2723.99670493 -217619.793229 -23.1911757858 4025.97934602 -58116.7056083  
43079.3216901 4873.06440853 -188860.053781 -2413.44491006 3108.47119641 -59332.9430808  
45478.3926143 417.380196827 -149014.038584 -10116.3442932 -6243.85249424 -222292.880767  
14189.0241276 -11468.1620426 -205102.080769 -7616.18407117 -11742.4338998 -200294.407111  
66559.4020943 -2857.47228845 -136302.462224 -8426.75146255 -3858.99523828 -154675.871185  
74928.3600618 -13509.4026505 -154122.909659 -2781.17946222 -2279.9719129 -54499.6868104  
78506.3740996 -15921.3837868 -159925.252329 2434.37494705 -2496.56804898 50617.1897748  
71090.510234 -6848.68855799 -140949.048261 8973.36396747 -3583.25791028 150861.428335  
69620.4242403 9575.24628374 -128367.296246 15000.8516284 -7691.32639899 216583.17604  
42748.0971261 3024.07425559 -186713.484603 13738.0056568 -13270.6218097 216332.122014  
40850.8319425 -5553.2424808 -260005.887121 7072.15077694 -17123.5910617 112823.928473  
51450.7919741 -4436.60848695 -151423.332256 -6491.6763617 1427.43871625 -7555.65840768  
63305.6301366 6575.71748737 -83704.3600948 -5887.41053089 -342.479510384 8348.13715751  
69107.4858784 8505.92580019 -19243.5266651 -3968.68783252 -3638.04870457 6497.22627521  
31129.5511608 -676.225450543 11222.0447653 -192.353009459 -3131.3650212 -424.513264854  
32431.0323963 -1274.72024025 13195.1820948 -4.95670110833 -2922.17900374 29.0921189725  
31853.4709157 -587.337343691 10590.8268934 242.497754951 -3222.74522124 226.089409475  
31184.2706166 1320.56432254 -429.075037253 1021.33537214 -3586.41319114 -2875.7917824  
34712.1366691 3868.92883713 -29680.921698 2555.16085171 -3368.8340745 -8556.21510881  
43629.3668022 5691.62091896 -82073.1780042 4733.9680269 -2069.5594692 -9520.82105483  
55030.1448318 -5068.59654532 -149501.325144 7094.01014467 1822.97841722 5312.65020216  
8863.79903035 -6565.7538761 -180820.217535 -4027.1221605 572.74065724 -17299.2033776  
10041.4245529 -6616.65450789 -155451.073503 -5087.62314263 1069.05625721 -9988.59035539  
11749.4419394 -3439.45183026 -121313.056013 -4937.83441354 748.467586434 -171.920187546  
14549.2737436 1473.17748414 -80321.6712783 -3846.73729967 -925.383020406 8039.32002441  
9015.09068841 395.389291918 -33223.5595045 -1874.37804184 -2207.32852075 9031.01487421  
7668.53501861 -96.1956962668 -2809.33730691 -735.987874312 -2628.44837355 5673.24541884  
8234.5478131 -701.520140516 11589.9419261 -248.972674372 -2598.12278879 2173.16209216  
8638.19708784 -1127.99877794 15372.3519836 3.68780282243 -2581.45408806 -49.0466989338  
8817.51942898 -634.494917771 10947.2644238 276.630328815 -2667.37198094 -2259.28868753  
9236.65266048 194.878314329 -4464.49713869 824.700570286 -2690.4507852 -6015.22996633  
11362.3655282 746.514396637 -35473.827499 1945.37952657 -2350.03389977 -8997.46718396  
18686.6135745 2802.86825572 -80723.4124726 4008.49757928 -1274.12024796 -8311.14120441  
18195.4686349 -987.076398294 -120885.136845 5088.64925552 285.208502214 84.7312794111  
12741.7969627 -6338.01868578 -159323.239201 5073.19481136 558.769562986 12120.0327889  
12021.6249518 -5294.68963625 -181893.933858 4007.51013283 -16.5048469523 18615.8282441  
-22867.556767 -6518.18714964 -121526.020352 -1182.43061025 -7577.88430915 -33994.6095437  
-46852.8131643 -23171.3517211 -165891.359729 -1949.26429689 -9907.90164775 -93444.9280091  
-4280.87213196 16163.2932947 -100939.623674 -3699.61270058 -9203.31673851 -160971.785244  
63121.1920712 83303.2080732 -4363.50804012 -10557.1901377 -10504.6798662 -191195.690824  
-54791.6358066 -12119.4432309 -169894.992657 -4413.83646507 -15595.4576412 -227295.806326  
-60455.2043726 -23383.5429457 -222653.395581 -4755.39337654 -10937.3282257 -219993.751408  
-37662.6509386 -11588.2768351 -241246.456283 -4107.05014292 -9764.74069808 -149233.536057  
-29021.1090747 -6384.20912529 -255586.809088 -1393.38741788 -9457.8557906 -38138.9174826  
-26168.5137454 -2550.76593412 -246100.390863 2752.17406741 -9579.24226671 80824.1765216  
-18394.1467722 5152.8836978 -194208.428965 4618.93362456 -8847.48998626 182193.878817  
-3257.81424457 22623.106664 -129708.812261 5828.4563051 -11385.0954675 231187.136827  
-18293.3931479 7769.7561673 -134258.740285 6816.36219033 -14093.5171247 212050.303526  
-20616.6833312 -937.582140034 -135454.398674 4217.25698075 -12325.1205906 143644.585576  
-17425.2613966 -1130.11787261 -121413.067609 1587.01004731 -9185.09051615 75519.7839439  
-12469.6140967 2535.83171551 -96986.0674081 1675.59478128 -6884.78766446 25302.5634626  
-11790.2002043 -2941.02633697 -156409.91027 2823.2263219 -7707.39111542 -28089.971585  
-30187.4676916 -8511.59124981 -157014.686519 6675.38119829 -5275.12073391 -14956.382252  
-42479.9454536 -8284.87082982 -156317.004214 8021.23346518 -1920.41097394 -25081.8510745  
-34249.3353565 2901.76118695 -152535.509853 8150.64604493 152.800363363 -41293.0062199  
-28464.3155253 530.867030889 -168004.853367 6489.00424085 1279.6296753 -56374.552568  
-13422.9973046 3806.39475705 -175323.60396 4688.18607144 1712.05442868 -66018.8039817  
-1432.70134021 4867.34498324 -180186.460814 3452.69856157 1414.17480532 -68803.203586  
3836.28084926 2942.94112302 -183969.846171 2557.84377406 878.30317743 -70846.5484839  
7347.10284501 456.414716898 -186390.703804 1793.52000688 752.173020329 -72346.193241  
18684.7721031 -262.00488826 -188117.157894 -668.768123909 992.169778143 -69936.1765863  
30239.9710185 -620.790511899 -185980.353055 -2260.24488457 34.3979291689 -59259.2876228  
33394.5132383 -578.201465764 -183914.298209 -3088.33091588 -976.602543862 -42321.0940517  
23606.5856042 -3712.36052401 -183662.049263 -3573.58251146 -1073.77510488 -27268.3764614  
32156.6322284 1040.24428815 -179781.721992 3452.56554151 -1611.15708614 29464.8877159  
32804.0466445 2285.24497184 -180365.935937 2257.28878814 -1195.4380849 46205.1992095  
22802.595731 67.9651334897 -180903.280395 1095.2154099 -713.460543856 61706.9748603  
12886.9194831 -822.819651285 -177197.193222 -88.6937837303 -639.063467869 70336.2802551  
6579.57500667 -86.3380527816 -173107.643847 -1205.84604326 -211.436486524 72410.0464051  
1401.82715929 1062.05871773 -170936.978207 -2256.37249681 379.901266519 70972.0037494  
-4149.3566115 2589.01072774 -169128.224932 -3358.78442567 968.462708769 68127.417874  
-12691.5993849 3286.26126915 -166834.633178 -4757.21615235 1300.15282325 63260.896561  
-26134.1319582 2294.68639581 -163631.651613 -6725.14117775 964.21439988 54020.560531  
-41223.0885066 -1157.59003304 -161298.968433 -8940.57993822 -465.494228752 38505.5638011  
-40360.8512146 -4615.5477158 -160119.354219 -9234.09765486 -3033.35306331 21015.2505799  
-10546.3395323 5513.04147476 -138469.97121 -5565.63780366 -5246.39386553 16665.2620522  
4338.98857518 8544.3912229 -118288.002631 -1442.0688889 -6583.43001011 21854.3307246  
42774.4820525 -4704.21234257 -180465.0638 -4849.28930322 796.673882223 -31167.0949847  
5569.12914709 -12635.3524203 -217319.37476 -2198.15218028 -13292.4836432 -100683.247941  
6309.07141057 -1265.16765141 -170044.47544 -377.242088617 -10819.5352382 65143.7049362  
28497.4989572 -5911.42704582 -167287.363127 -4993.98844072 -118.656840723 -17570.7050549  
39349.6316075 -929.394579376 -165707.114003 4803.75196951 -408.915081002 22811.6299092  
6755.74150888 -3227.62363114 -10374.5118913 6871.00422496 -1056.02689685 -13252.0457587  
-40386.8629663 -13945.3816686 -201567.734884 5022.81820674 -5692.20943265 -38571.6106784  
32547.0640195 -3384.34831886 -133176.432088 -5466.17109038 -133.476607331 -2274.42286305  
39862.1472947 4934.28932219 -81463.7899942 -4675.60694841 -2088.8304845 9650.19572971  
32107.6595505 3632.03293416 -26928.3580378 -2456.08435508 -3379.20332672 8712.53247369  
44293.9219736 1512.1362239 -126717.748522 5726.96976071 -562.884015269 157.852528205  
44482.6975042 1473.68586621 -181021.946444 3368.83584752 821.941330871 46791.1834219  
30216.1592406 -1447.41193829 -190936.783069 1917.27534945 1013.12375849 63565.9302605  
12934.6336411 -2686.02812697 -196899.559651 332.843963784 1098.18775277 69858.4066793  
12613.210015 -9958.8698827 -207964.793334 4861.22879353 -13734.8796302 136828.36623  
41541.3727848 -14233.203208 -189140.371095 7815.92143023 2268.09544134 27231.8456084  
17650.0384862 -2354.97005817 -207635.671638 -1587.03280902 1722.36530129 -50956.1015793  
-10229.2498767 -5479.13926642 -218343.160325 -4026.90613327 -10548.5048664 45272.4417114  
-431.229287679 -49.1109745224 -251951.065677 -1761.01887754 4069.28887348 50661.3082835  
-5307.56703688 -1210.90597158 -275405.587487 -2276.40130755 4687.08959422 50228.8485994  
-11684.5585448 -1161.70518504 -295613.914795 -3197.68048459 4853.75669613 52820.0591716  
61199.7486195 1917.80055503 3533.4919335 -1374.00686781 -4227.24393662 -2061.87905873  
66598.5703445 -39.9176276561 7908.00212968 325.962939907 -3259.41390374 2868.10933757  
2325.18203431 -987.331093636 -231174.735107 -1109.67113979 3811.69173644 53273.1048816  
106480.053481 524.409838473 3484.6927077 -111.047896102 -2403.61817499 -3701.46576819  
</DataArray>
<DataArray type="Float64" Name="equivalent_strain" NumberOfComponents="1" format="ascii" >
0.0  
0.0  
0.000989841067513  
0.000926478241125  
0.000847937596641  
0.0  
0.0  
0.0  
0.0  
0.0  
0.000662412596126  
0.000729793317486  
0.000735853414253  
9.53299817979e-06  
0.0  
0.000923175352005  
0.000744214799877  
0.000731700829272  
1.67847348385e-05  
8.5699584582e-06  
5.34338757761e-06  
0.0  
1.41873405113e-05  
0.00140740744678  
0.00125615358605  
0.00111079695931  
0.000972111185413  
0.000838446748442  
0.000695821815459  
0.000750550137846  
0.000592111153104  
0.00127316342619  
0.000739706102413  
0.000734182757253  
0.000663312406285  
0.000280047968666  
0.0  
6.08270958088e-05  
0.000264891089714  
0.000387837380935  
0.0  
0.000759424524928  
0.00149602970855  
0.00114216243408  
0.00120954204932  
0.00112871758039  
0.00102817561228  
0.000919027558507  
0.000812302916832  
0.00076432540634  
0.00164605140856  
0.00117490790694  
0.000978634063145  
0.000968955441718  
0.00109372079792  
0.00125354843034  
0.00160020139543  
0.00209715052424  
0.000369218401721  
8.91221476727e-05  
0.000101984141539  
0.000437211536214  
0.000281061525708  
0.000147517452538  
3.55008366645e-05  
0.0  
0.0  
0.0  
0.0  
0.0  
0.0  
0.0  
0.0  
0.0  
3.68048710112e-05  
0.000151600361571  
0.000284421495517  
0.000439805725265  
0.000640329640807  
0.0  
0.0  
0.0  
6.64537620541e-05  
0.000359004795712  
0.000957889904362  
0.00176374133758  
0.00248027718405  
0.00223735631554  
0.00215743051868  
0.00221735817519  
0.00244958051695  
0.00181711725058  
0.00105011717105  
0.0004110281081  
7.80412454669e-05  
0.0  
0.0  
0.0  
0.0  
0.0  
0.0  
0.0  
0.0  
1.97846188561e-05  
4.92319025777e-05  
0.000115899223518  
0.000188887312149  
0.000289325175047  
0.000382985176193  
0.00045795046742  
0.000514105720208  
0.000550179374387  
0.00057248840681  
0.000607318366925  
0.000638228710333  
0.000611153245418  
0.000577263394179  
0.000553790304729  
0.000512571479375  
0.000446416082152  
0.000359474242378  
0.000256808969396  
0.000161705222253  
9.6333086921e-05  
4.56355008147e-05  
2.04983671018e-05  
0.0  
0.0  
0.0  
0.0  
0.0  
0.0  
0.000389296243509  
0.00151024493708  
0.00123126013088  
0.000775851453543  
0.00077003781249  
0.000995202443733  
0.000876268600258  
0.000686759687095  
0.000711313912269  
0.00198022108816  
0.00207179735086  
0.00207937963301  
0.00149155109027  
0.000661688817001  
0.0  
0.0  
0.000193286033069  
0.000460486101418  
0.000319104989448  
0.000181529686493  
4.75830185631e-05  
0.0  
0.0  
0.0  
0.0  
0.0  
0.0  
0.0  
0.0  
0.0  
6.08567940948e-05  
0.000197983616541  
0.000330388876615  
0.000466308106654  
0.0  
3.25304045441e-05  
0.000279762001201  
0.000741898998851  
0.00135707736353  
0.00197751023615  
0.00215498988875  
0.00182322841903  
0.0015702771438  
0.0016938368793  
0.0020424690621  
0.00203148689133  
0.0015105471928  
0.000803143125307  
0.000245263573393  
1.33248903186e-05  
0.0  
0.0  
0.0  
1.1266485611e-05  
1.17168290832e-05  
5.23691380469e-05  
0.000151061076431  
0.000270724175318  
0.000379206082048  
0.00046576863787  
0.000534216131707  
0.000571909648633  
0.000577688553806  
0.000557899078541  
0.000526365762351  
0.000492705779726  
0.000500596924471  
0.000531335004799  
0.000548874983367  
0.00054828426019  
0.000525761524218  
0.000480461752354  
0.000416154106686  
0.00034110484475  
0.000248870604074  
0.000144867941905  
5.83334969405e-05  
1.8536173988e-05  
3.0653105244e-06  
0.0  
0.0  
0.000661236762135  
0.000971444349872  
0.00125016508266  
0.000725062736835  
0.000711365607157  
0.000779862627819  
0.000765920511398  
0.000555731523996  
0.000517664998898  
0.000616833399438  
0.000427453291322  
0.000559207027747  
0.000729732319519  
0.000823400360607  
0.00084590153595  
0.000820023843919  
0.000787193451541  
0.000765630686354  
0.000778388962681  
0.00194678693743  
0.00180301687802  
0.00137467882708  
0.00082186698891  
0.000786753304692  
0.00129613555313  
0.0018885180926  
0.00193987716259  
0.00144018435539  
0.000450111432398  
0.000180775338139  
3.7329108518e-06  
7.11841495296e-05  
0.000451541896319  
0.000401811193038  
0.000281502481583  
0.000127753732502  
8.56067569487e-06  
0.0  
0.0  
0.0  
0.0  
0.0  
0.0  
0.0  
1.49036179252e-05  
0.000153296107062  
0.000313799824652  
0.000422314071869  
0.000158081040728  
0.000631187531104  
0.00118983802678  
0.00151645457748  
0.00193742903916  
0.00198683034361  
0.00154151471153  
0.00109245986064  
0.00115792004287  
0.00166238037941  
0.00199472506923  
0.00175812538909  
0.00106968388551  
0.000431652960828  
7.16545261456e-05  
0.000327690517979  
0.00020409387963  
0.000195915866392  
0.000277087614331  
0.00041041251646  
0.000532973038153  
0.000610964524561  
0.000656720977252  
0.000689010751177  
0.000719769993685  
0.000680797728371  
0.00060083020274  
0.000501167759955  
0.000525029497991  
0.000606113352782  
0.000652795150853  
0.000657972548301  
0.000636339725768  
0.000602038515719  
0.000557881712919  
0.000491968161929  
0.000392735381458  
0.000285433612866  
0.000236787846006  
0.00022257522641  
0.000175578138642  
0.000586743874294  
0.00101945725793  
0.0006076619224  
0.000423629455865  
0.000484667792389  
0.000782501109481  
7.45735264535e-06  
7.45735264535e-06  
0.000782501109481  
0.000484667792389  
0.000423629455865  
0.0006076619224  
0.00101945725793  
0.000586743874294  
0.000175578138642  
0.00022257522641  
0.000236787846006  
0.000285433612866  
0.000392735381458  
0.000491968161929  
0.000557881712919  
0.000602038515719  
0.000636339725768  
0.000657972548301  
0.000652795150853  
0.000606113352782  
0.000525029497991  
0.000501167759955  
0.00060083020274  
0.000680797728371  
0.000719769993685  
0.000689010751177  
0.000656720977252  
0.000610964524561  
0.000532973038153  
0.00041041251646  
0.000277087614331  
0.000195915866392  
0.00020409387963  
0.000327690517979  
7.16545261456e-05  
0.000431652960828  
0.00106968388551  
0.00175812538909  
0.00199472506923  
0.00166238037941  
0.00115792004287  
0.00109245986064  
0.00154151471153  
0.00198683034361  
0.00193742903916  
0.00151645457748  
0.00118983802678  
0.000631187531104  
0.000158081040728  
0.000422314071869  
0.000313799824652  
0.000153296107062  
1.49036179252e-05  
0.0  
0.0  
0.0  
0.0  
0.0  
0.0  
0.0  
8.56067569487e-06  
0.000127753732502  
0.000281502481583  
0.000401811193038  
0.000451541896319  
7.11841495296e-05  
3.7329108518e-06  
0.000180775338139  
0.000450111432398  
0.00144018435539  
0.00193987716259  
0.0018885180926  
0.00129613555313  
0.000786753304692  
0.00082186698891  
0.00137467882708  
0.00180301687802  
0.00194678693743  
0.000778388962681  
0.000765630686354  
0.000787193451541  
0.000820023843919  
0.00084590153595  
0.000823400360607  
0.000729732319519  
0.000559207027747  
0.000427453291322  
0.000616833399438  
0.000517664998898  
0.000555731523996  
0.000765920511398  
0.000779862627819  
0.000711365607157  
0.000725062736835  
0.00125016508266  
0.000971444349872  
0.000661236762135  
0.0  
0.0  
3.0653105244e-06  
1.8536173988e-05  
5.83334969405e-05  
0.000144867941905  
0.000248870604074  
0.00034110484475  
0.000416154106686  
0.000480461752354  
0.000525761524218  
0.00054828426019  
0.000548874983367  
0.000531335004799  
0.000500596924471  
0.000492705779726  
0.000526365762351  
0.000557899078541  
0.000577688553806  
0.000571909648633  
0.000534216131707  
0.00046576863787  
0.000379206082048  
0.000270724175318  
0.000151061076431  
5.23691380469e-05  
1.17168290832e-05  
1.1266485611e-05  
0.0  
0.0  
0.0  
1.33248903186e-05  
0.000245263573393  
0.000803143125307  
0.0015105471928  
0.00203148689133  
0.0020424690621  
0.0016938368793  
0.0015702771438  
0.00182322841903  
0.00215498988875  
0.00197751023615  
0.00135707736353  
0.000741898998851  
0.000279762001201  
3.25304045441e-05  
0.0  
0.000466308106654  
0.000330388876615  
0.000197983616541  
6.08567940948e-05  
0.0  
0.0  
0.0  
0.0  
0.0  
0.0  
0.0  
0.0  
0.0  
4.75830185631e-05  
0.000181529686493  
0.000319104989448  
0.000460486101418  
0.000193286033069  
0.0  
0.0  
0.000661688817001  
0.00149155109027  
0.00207937963301  
0.00207179735086  
0.00198022108816  
0.000711313912269  
0.000686759687095  
0.000876268600258  
0.000995202443733  
0.00077003781249  
0.000775851453543  
0.00123126013088  
0.00151024493708  
0.000389296243509  
0.0  
0.0  
0.0  
0.0  
0.0  
0.0  
2.04983671018e-05  
4.56355008147e-05  
9.6333086921e-05  
0.000161705222253  
0.000256808969396  
0.000359474242378  
0.000446416082152  
0.000512571479375  
0.000553790304729  
0.000577263394179  
0.000611153245418  
0.000638228710333  
0.000607318366925  
0.00057248840681  
0.000550179374387  
0.000514105720208  
0.00045795046742  
0.000382985176193  
0.000289325175047  
0.000188887312149  
0.000115899223518  
4.92319025777e-05  
1.97846188561e-05  
0.0  
0.0  
0.0  
0.0  
0.0  
0.0  
0.0  
0.0  
7.80412454669e-05  
0.0004110281081  
0.00105011717105  
0.00181711725058  
0.00244958051695  
0.00221735817519  
0.00215743051868  
0.00223735631554  
0.00248027718405  
0.00176374133758  
0.000957889904362  
0.000359004795712  
6.64537620541e-05  
0.0  
0.0  
0.0  
0.000640329640807  
0.000439805725265  
0.000284421495517  
0.000151600361571  
3.68048710112e-05  
0.0  
0.0  
0.0  
0.0  
0.0  
0.0  
0.0  
0.0  
0.0  
3.55008366645e-05  
0.000147517452538  
0.000281061525708  
0.000437211536214  
0.000101984141539  
8.91221476727e-05  
0.000369218401721  
0.00209715052424  
0.00160020139543  
0.00125354843034  
0.00109372079792  
0.000968955441718  
0.000978634063145  
0.00117490790694  
0.00164605140856  
0.00076432540634  
0.000812302916832  
0.000919027558507  
0.00102817561228  
0.00112871758039  
0.00120954204932  
0.00114216243408  
0.00149602970855  
0.000759424524928  
0.0  
0.000387837380935  
0.000264891089714  
6.08270958088e-05  
0.0  
0.000280047968666  
0.000663312406285  
0.000734182757253  
0.000739706102413  
0.00127316342619  
0.000592111153104  
0.000750550137846  
0.000695821815459  
0.000838446748442  
0.000972111185413  
0.00111079695931  
0.00125615358605  
0.00140740744678  
1.41873405113e-05  
0.0  
5.34338757761e-06  
8.5699584582e-06  
1.67847348385e-05  
0.000731700829272  
0.000744214799877  
0.000923175352005  
0.0  
9.53299817979e-06  
0.000735853414253  
0.000729793317486  
0.000662412596126  
0.0  
0.0  
0.0  
0.0  
0.0  
0.000847937596641  
0.000926478241125  
0.000989841067513  
0.0  
0.0  
0.000828564334364  
0.000707103855709  
0.00065555894435  
0.000612260999769  
0.000534146947472  
0.00041579764178  
0.000264806341908  
9.69135818336e-05  
1.67449434148e-05  
0.0  
0.0  
4.73057256479e-05  
0.000102240495575  
0.000115893481212  
8.89986940986e-05  
3.45397034835e-05  
0.0  
0.0  
0.0  
0.0  
0.0  
0.0  
2.91171333544e-05  
8.4394236489e-05  
0.000112118910325  
9.62621001156e-05  
4.04638737347e-05  
0.0  
0.0  
2.11958964338e-05  
0.000104144620258  
0.000267720542321  
0.000413685570464  
0.000529646028043  
0.000607386581816  
0.000651253449395  
0.00070396926643  
0.000826686697762  
0.0  
0.0  
0.0  
0.0  
0.0  
0.000102951507384  
0.000436712577442  
0.001833757826  
0.00331993866746  
0.00300006618845  
0.00305366593781  
0.00300372750465  
0.00332788254036  
0.00188366480343  
0.000490592131697  
0.000118534815976  
0.0  
0.0  
0.0  
0.0  
0.0  
0.000805645628122  
0.00056275093285  
0.000379227415966  
0.00024061277729  
0.000122470390619  
2.38287918055e-05  
0.0  
0.0  
0.0  
0.0  
0.0  
0.0  
0.0  
0.0  
0.0  
2.36792452405e-05  
0.00012253975908  
0.000240093009505  
0.000379951126988  
0.000563707819007  
0.000804706059085  
0.000294955744595  
0.000126269847879  
7.31983252896e-05  
5.71399269286e-05  
7.26481930294e-05  
0.00012529603619  
0.000307776995828  
0.00166479090986  
0.00135753907806  
0.001556327436  
0.00163857709401  
0.00155786973854  
0.0013220061419  
0.00149990329707  
0.000642488442231  
0.00201987863423  
0.00163034920935  
0.0014004810174  
0.00123223589623  
0.00107954144228  
0.000929789736236  
0.000853680682086  
0.00217252893284  
0.00228507535279  
0.000836399052443  
0.000936196738344  
0.00109097949625  
0.00125276001062  
0.00142756887841  
0.00167809960863  
0.00219015837056  
0.000649084437785  
0.00232852552954  
0.00177798219635  
0.00148073505874  
0.00128473444277  
0.00111557466058  
0.000955957569789  
0.000794875002828  
0.00228537886519  
0.00180564890534  
0.00152709111751  
0.00132051080976  
0.00113581174639  
0.000952530573115  
0.000764951569778  
0.00222951098862  
0.00179138034109  
0.00153844086309  
0.00133646052106  
0.00114276638349  
0.000947665659968  
0.000753234176007  
0.00220901932707  
0.0017832454752  
0.00153904783116  
0.00133996177515  
0.00114428121031  
0.000946526473343  
0.000750907625555  
0.00222951098862  
0.00179138034109  
0.00153844086309  
0.00133646052106  
0.00114276638349  
0.000947665659968  
0.000753234176007  
0.00228537886519  
0.00180564890534  
0.00152709111751  
0.00132051080976  
0.00113581174639  
0.000952530573115  
0.000764951569778  
0.00232852552954  
0.00177798219635  
0.00148073505874  
0.00128473444277  
0.00111557466058  
0.000955957569789  
0.000794875002828  
0.000836399052443  
0.000936196738344  
0.00109097949625  
0.00125276001062  
0.00142756887841  
0.00167809960863  
0.00219015837056  
0.000649084437785  
0.000568867690714  
0.000544435237543  
0.000530631503593  
0.000526772508502  
0.000530631503593  
0.000544435237543  
0.000568867690714  
0.00228507535279  
0.00213684630192  
0.00199755226336  
0.00188967728055  
0.00185419774409  
0.00188967728055  
0.00199755226336  
0.00213684630192  
0.00213599080857  
0.00171717839277  
0.00145034864484  
0.0012631783512  
0.00110429600345  
0.000948765273574  
0.000806984335415  
0.00209422030988  
0.00173879574462  
0.00149263153606  
0.00129735851212  
0.00112347865626  
0.000943973385901  
0.000776859137278  
0.0020405911731  
0.00172430966853  
0.00150224141794  
0.00131175080286  
0.00112936333298  
0.000938330650368  
0.000765214220983  
0.00202102603422  
0.0017166809247  
0.00150245320787  
0.00131466918947  
0.00113045986604  
0.000936957003447  
0.000762984057467  
0.0020405911731  
0.00172430966853  
0.00150224141794  
0.00131175080286  
0.00112936333298  
0.000938330650368  
0.000765214220983  
0.00209422030988  
0.00173879574462  
0.00149263153606  
0.00129735851212  
0.00112347865626  
0.000943973385901  
0.000776859137278  
0.00213599080857  
0.00171717839277  
0.00145034864484  
0.0012631783512  
0.00110429600345  
0.000948765273574  
0.000806984335415  
0.00201987863423  
0.00163034920935  
0.0014004810174  
0.00123223589623  
0.00107954144228  
0.000929789736236  
0.000853680682086  
0.000560887172518  
0.000537215260978  
0.000524208966421  
0.000520582312653  
0.000524208966421  
0.000537215260978  
0.000560887172518  
0.000642488442231  
0.00201852732449  
0.00188937491376  
0.00179217773301  
0.00175966098598  
0.00179217773301  
0.00188937491376  
0.00201852732449  
0.00217252893284  
0.00128281242168  
0.00116656678337  
0.00105662952473  
0.00101917557725  
0.00105662952473  
0.00116656678337  
0.00128281242168  
0.00135042050895  
0.0012710575497  
0.00118450875928  
0.00115368661613  
0.00118450875928  
0.0012710575497  
0.00135042050895  
0.00167884763051  
0.0016581481403  
0.0015937488992  
0.0015669789167  
0.0015937488992  
0.0016581481403  
0.00167884763051  
0.00177397800821  
0.00177187893716  
0.00171925588021  
0.00169508243654  
0.00171925588021  
0.00177187893716  
0.00177397800821  
0.0016664683407  
0.00164583995136  
0.00158306382706  
0.00155699627192  
0.00158306382706  
0.00164583995136  
0.0016664683407  
0.00135394463494  
0.00127400865629  
0.0011912466364  
0.001161626593  
0.0011912466364  
0.00127400865629  
0.00135394463494  
0.00140315994371  
0.00127913002113  
0.00117947908119  
0.00114533529433  
0.00117947908119  
0.00127913002113  
0.00140315994371  
0.00149990329707  
0.0013220061419  
0.00155786973854  
0.00163857709401  
0.001556327436  
0.00135753907806  
0.00166479090986  
0.000312781306368  
0.000175465059787  
0.000105656732742  
8.43809292386e-05  
0.000106191058338  
0.000175774104743  
0.000300327549976  
0.000296071449493  
0.000188673921153  
0.000134845530991  
0.000116043203522  
0.000135151873782  
0.000188318081476  
0.000283086491903  
0.000281798115593  
0.000187222716943  
0.000146187434466  
0.000132899739116  
0.000146296402192  
0.000186411835497  
0.000268301815993  
0.000277004782815  
0.000186095594503  
0.000148794757545  
0.000137440944845  
0.000148847469126  
0.00018518182212  
0.00026335751385  
0.000281798115593  
0.000187222716943  
0.000146187434466  
0.000132899739116  
0.000146296402192  
0.000186411835497  
0.000268301815993  
0.000296071449493  
0.000188673921153  
0.000134845530991  
0.000116043203522  
0.000135151873782  
0.000188318081476  
0.000283086491903  
0.000312781306368  
0.000175465059787  
0.000105656732742  
8.43809292386e-05  
0.000106191058338  
0.000175774104743  
0.000300327549976  
0.000307776995828  
0.00012529603619  
7.26481930294e-05  
5.71399269286e-05  
7.31983252896e-05  
0.000126269847879  
0.000294955744595  
0.000412991434718  
0.000240640357402  
0.000121214398112  
2.97572717178e-05  
0.0  
0.0  
0.0  
0.0  
0.0  
0.0  
0.0  
0.0  
0.0  
0.0  
0.0  
2.82182627524e-05  
0.000119110904384  
0.00023885498298  
0.000411624384987  
0.000352833902252  
0.00017784531025  
6.56638652219e-05  
1.59289189917e-06  
0.0  
0.0  
0.0  
0.0  
0.0  
0.0  
0.0  
0.0  
0.0  
0.0  
0.0  
9.76236182039e-07  
6.30994832511e-05  
0.000175880431745  
0.00035133350381  
0.000332700012678  
0.00015473907961  
4.48400664672e-05  
0.0  
0.0  
0.0  
0.0  
0.0  
0.0  
0.0  
0.0  
0.0  
0.0  
0.0  
0.0  
0.0  
4.23860597422e-05  
0.000152820886396  
0.000331165912496  
0.000327845054595  
0.000148836114803  
3.94499036745e-05  
0.0  
0.0  
0.0  
0.0  
0.0  
0.0  
0.0  
0.0  
0.0  
0.0  
0.0  
0.0  
0.0  
3.70519018925e-05  
0.00014694432378  
0.000326308138453  
0.000332700012678  
0.00015473907961  
4.48400664672e-05  
0.0  
0.0  
0.0  
0.0  
0.0  
0.0  
0.0  
0.0  
0.0  
0.0  
0.0  
0.0  
0.0  
4.23860597422e-05  
0.000152820886396  
0.000331165912496  
0.000352833902252  
0.00017784531025  
6.56638652219e-05  
1.59289189917e-06  
0.0  
0.0  
0.0  
0.0  
0.0  
0.0  
0.0  
0.0  
0.0  
0.0  
0.0  
9.76236182039e-07  
6.30994832511e-05  
0.000175880431745  
0.00035133350381  
0.000412991434718  
0.000240640357402  
0.000121214398112  
2.97572717178e-05  
0.0  
0.0  
0.0  
0.0  
0.0  
0.0  
0.0  
0.0  
0.0  
0.0  
0.0  
2.82182627524e-05  
0.000119110904384  
0.00023885498298  
0.000411624384987  
0.000563707819007  
0.000379951126988  
0.000240093009505  
0.00012253975908  
2.36792452405e-05  
0.0  
0.0  
0.0  
0.0  
0.0  
0.0  
0.0  
0.0  
0.0  
2.38287918055e-05  
0.000122470390619  
0.00024061277729  
0.000379227415966  
0.00056275093285  
0.000805645628122  
0.000659243320782  
0.000616822930606  
0.000606795164051  
0.000605097193995  
0.000606795164051  
0.000616822930606  
0.000659243320782  
0.000658465069555  
0.000615987811616  
0.000605905103395  
0.000604192022762  
0.000605905103395  
0.000615987811616  
0.000658465069555  
0.000804706059085  
0.0  
0.0  
0.0  
0.0  
0.0  
0.0  
0.0  
0.0  
0.0  
0.0  
0.0  
0.0  
0.0  
0.0  
0.0  
0.0  
0.0  
0.0  
0.0  
0.0  
0.0  
0.0  
0.0  
0.0  
0.0  
0.0  
0.0  
0.0  
6.82563729686e-05  
6.16948342641e-05  
6.26205299901e-05  
6.26440289832e-05  
6.26205299901e-05  
6.16948342641e-05  
6.82563729686e-05  
0.000337647632108  
0.000364730922565  
0.000384744163429  
0.000385490047191  
0.000384744163429  
0.000364730922565  
0.000337647632108  
0.00122084379313  
0.00117913695761  
0.00113949389738  
0.00112481257187  
0.00113949389738  
0.00117913695761  
0.00122084379313  
0.00237199825562  
0.0019358271777  
0.00179049407212  
0.0017431011153  
0.00179049407212  
0.0019358271777  
0.00237199825562  
0.0025678990484  
0.00217408254389  
0.00198236474141  
0.00191141354766  
0.00198236474141  
0.00217408254389  
0.0025678990484  
0.00264519141679  
0.0023102775142  
0.00212888602541  
0.00205283163184  
0.00212888602541  
0.0023102775142  
0.00264519141679  
0.00256318049639  
0.00216928275271  
0.00197664144958  
0.00190494612281  
0.00197664144958  
0.00216928275271  
0.00256318049639  
0.00236884664344  
0.00193549515438  
0.00178760472157  
0.00173948771074  
0.00178760472157  
0.00193549515438  
0.00236884664344  
0.00119537918694  
0.00116583175267  
0.00112348077053  
0.0011079604672  
0.00112348077053  
0.00116583175267  
0.00119537918694  
0.000317253411939  
0.000343945229046  
0.000362415724583  
0.000362403612992  
0.000362415724583  
0.000343945229046  
0.000317253411939  
5.88613342977e-05  
5.38732306774e-05  
5.43093346849e-05  
5.41894361347e-05  
5.43093346849e-05  
5.38732306774e-05  
5.88613342977e-05  
0.0  
0.0  
0.0  
0.0  
0.0  
0.0  
0.0  
0.0  
0.0  
0.0  
0.0  
0.0  
0.0  
0.0  
0.0  
0.0  
0.0  
0.0  
0.0  
0.0  
0.0  
0.0  
0.0  
0.0  
0.0  
0.0  
0.0  
0.0  
0.0  
0.0  
0.0  
0.0  
0.000118534815976  
0.000490592131697  
0.00188366480343  
0.00332788254036  
0.00300372750465  
0.00305366593781  
0.00300006618845  
0.00331993866746  
0.001833757826  
0.000436712577442  
0.000102951507384  
0.0  
0.0  
0.0  
0.0  
0.0  
0.0  
0.0  
0.0  
0.0  
0.0  
0.0  
0.0  
0.0  
0.0  
0.0  
0.0  
0.0  
0.0  
0.0  
0.0  
0.000759031901778  
0.000707055675585  
0.000685641297471  
0.00068029757157  
0.000685641297471  
0.000707055675585  
0.000759031901778  
0.000750610499091  
0.000731934832914  
0.000707987396699  
0.000699796311987  
0.000707987396699  
0.000731934832914  
0.000750610499091  
0.000704244133017  
0.000720734118004  
0.000711825520564  
0.000706613234333  
0.000711825520564  
0.000720734118004  
0.000704244133017  
0.000647688163297  
0.000669071241749  
0.000671135169789  
0.000669854522776  
0.000671135169789  
0.000669071241749  
0.000647688163297  
0.000555214446346  
0.000571576905297  
0.000575390906358  
0.000575714195138  
0.000575390906358  
0.000571576905297  
0.000555214446346  
0.000423016072456  
0.000431999530034  
0.000434047819231  
0.0004342458178  
0.000434047819231  
0.000431999530034  
0.000423016072456  
0.000259416351889  
0.000261741590598  
0.000261900374111  
0.000261649219662  
0.000261900374111  
0.000261741590598  
0.000259416351889  
8.33578106761e-05  
8.19281744051e-05  
8.12643726984e-05  
8.09487994809e-05  
8.12643726984e-05  
8.19281744051e-05  
8.33578106761e-05  
5.69136121277e-06  
9.46783036258e-07  
0.0  
0.0  
0.0  
9.46783036258e-07  
5.69136121277e-06  
0.0  
0.0  
0.0  
0.0  
0.0  
0.0  
0.0  
0.0  
0.0  
0.0  
0.0  
0.0  
0.0  
0.0  
3.81202557678e-05  
2.66726178078e-05  
1.7167088582e-05  
1.48852243711e-05  
1.7167088582e-05  
2.66726178078e-05  
3.81202557678e-05  
9.73373218778e-05  
8.5740440125e-05  
7.50001428542e-05  
7.10314269386e-05  
7.50001428542e-05  
8.5740440125e-05  
9.73373218778e-05  
0.000114420766972  
0.000105522029436  
9.69260346259e-05  
9.38122879306e-05  
9.69260346259e-05  
0.000105522029436  
0.000114420766972  
8.48590231027e-05  
8.02915471582e-05  
7.4991189095e-05  
7.30427603375e-05  
7.4991189095e-05  
8.02915471582e-05  
8.48590231027e-05  
2.53082571937e-05  
2.48858520278e-05  
2.38063761201e-05  
2.34353773974e-05  
2.38063761201e-05  
2.48858520278e-05  
2.53082571937e-05  
0.0  
0.0  
0.0  
0.0  
0.0  
0.0  
0.0  
0.0  
0.0  
0.0  
0.0  
0.0  
0.0  
0.0  
0.0  
0.0  
0.0  
0.0  
0.0  
0.0  
0.0  
0.0  
0.0  
0.0  
2.91171333544e-05  
8.4394236489e-05  
0.000112118910325  
9.62621001156e-05  
4.04638737347e-05  
0.0  
0.0  
2.11958964338e-05  
0.000104144620258  
0.000267720542321  
0.000413685570464  
0.000529646028043  
0.000607386581816  
0.000651253449395  
0.00070396926643  
0.000826686697762  
0.0  
0.0  
0.0  
3.11862686319e-05  
9.00026400262e-05  
0.00011894307773  
0.00010393642729  
4.48556198872e-05  
0.0  
0.0  
2.55960080113e-06  
8.12402478156e-05  
0.000258479028888  
0.000426457022075  
0.000560392226026  
0.000652730333077  
0.000708503936019  
0.000753681259107  
0.000760736391901  
0.0  
0.0  
0.0  
3.1144258681e-05  
8.54716373308e-05  
0.00011013170533  
9.26441273874e-05  
3.34716214079e-05  
0.0  
0.0  
0.0  
8.04597553512e-05  
0.000261714337645  
0.000435767052096  
0.000576845361629  
0.000674039176114  
0.000724872771792  
0.000734892755011  
0.000708724221789  
0.0  
0.0  
0.0  
3.0220197283e-05  
8.01459114544e-05  
0.000101477498087  
8.20818805445e-05  
2.27059765868e-05  
0.0  
0.0  
0.0  
7.99441452916e-05  
0.00026198544634  
0.000437772520992  
0.000580590954086  
0.000676037803886  
0.000715875495978  
0.000710894456978  
0.000687330806374  
0.0  
0.0  
0.0  
2.99244856429e-05  
7.82084327111e-05  
9.83589949421e-05  
7.82323146388e-05  
1.86767263863e-05  
0.0  
0.0  
0.0  
7.96707676953e-05  
0.000261751627035  
0.000437938199072  
0.000580880811602  
0.000674722295503  
0.000710637467103  
0.000702697928822  
0.00068199592391  
0.0  
0.0  
0.0  
3.0220197283e-05  
8.01459114544e-05  
0.000101477498087  
8.20818805445e-05  
2.27059765868e-05  
0.0  
0.0  
0.0  
7.99441452916e-05  
0.00026198544634  
0.000437772520992  
0.000580590954086  
0.000676037803886  
0.000715875495978  
0.000710894456978  
0.000687330806374  
0.0  
0.0  
0.0  
3.1144258681e-05  
8.54716373308e-05  
0.00011013170533  
9.26441273874e-05  
3.34716214079e-05  
0.0  
0.0  
0.0  
8.04597553512e-05  
0.000261714337645  
0.000435767052096  
0.000576845361629  
0.000674039176114  
0.000724872771792  
0.000734892755011  
0.000708724221789  
0.0  
0.0  
0.0  
3.11862686319e-05  
9.00026400262e-05  
0.00011894307773  
0.00010393642729  
4.48556198872e-05  
0.0  
0.0  
2.55960080113e-06  
8.12402478156e-05  
0.000258479028888  
0.000426457022075  
0.000560392226026  
0.000652730333077  
0.000708503936019  
0.000753681259107  
0.000760736391901  
0.000828564334364  
0.000707103855709  
0.00065555894435  
0.000612260999769  
0.000534146947472  
0.00041579764178  
0.000264806341908  
9.69135818336e-05  
1.67449434148e-05  
0.0  
0.0  
4.73057256479e-05  
0.000102240495575  
0.000115893481212  
8.89986940986e-05  
3.45397034835e-05  
0.0  
0.0  
0.0  
0.000727353927691  
0.000845881213046  
0.000987866666638  
0.00113501579643  
0.0013032302136  
0.00150759179803  
0.00164859274011  
0.00125361234222  
0.00128897634773  
0.00116584844556  
0.00104608619713  
0.000929232414067  
0.000812651911793  
0.000722454480109  
0.00138708805573  
0.0011006654484  
0.00105790180512  
0.00108324956507  
0.00112632272789  
0.00114554039891  
0.00133939397253  
0.00178453395137  
0.000324536536817  
0.000104029894211  
4.09125537391e-05  
0.0  
1.89437452541e-05  
2.61625950694e-05  
4.66502720599e-05  
0.000116851292797  
0.000373781117211  
0.000222853059491  
9.92021743583e-05  
1.17030826457e-05  
0.0  
0.0  
0.0  
0.0  
0.0  
0.0  
0.0  
0.0  
0.0  
1.44999840417e-05  
0.000105571414823  
0.000228554043225  
0.000377305180673  
0.000575072916015  
0.0  
0.0  
0.0  
4.71572906975e-05  
0.000245535034169  
0.000670634932388  
0.00124179721865  
0.00168160593507  
0.00163028237577  
0.00160894908242  
0.00162184802234  
0.00167355007993  
0.00128787630198  
0.000746575421195  
0.000291247173678  
5.26293584165e-05  
0.0  
0.0  
0.0  
0.0  
0.0  
0.0  
0.0  
0.0  
1.51430458668e-05  
4.05354956487e-05  
8.86728007555e-05  
0.000156173946364  
0.000251866016984  
0.000357742140217  
0.000452593549275  
0.000529979201052  
0.000585333221761  
0.000623568926159  
0.000652422625054  
0.000572634929956  
0.000656514276796  
0.000628512783515  
0.000589485154148  
0.000529808901285  
0.00044328430294  
0.000336691328535  
0.000221512857959  
0.000130123782522  
7.13254351367e-05  
3.67825653598e-05  
1.60050276396e-05  
0.0  
0.0  
0.0  
0.0  
0.0  
0.0  
0.000340340938772  
0.00154146507971  
0.00124870972407  
0.000682681843588  
0.000681643108776  
0.000690013780638  
0.000735412919002  
0.00106489688627  
0.00102211811842  
0.000920604885838  
0.000720579663029  
0.000789117316664  
0.00169543915754  
0.00173127388598  
0.00176615399697  
0.0013346735777  
0.000579880819237  
0.0  
0.0  
0.0  
7.82903818256e-06  
0.000169792888949  
0.000492784763565  
0.00033996560084  
0.00019414963152  
5.3641002692e-05  
0.0  
0.0  
0.0  
0.0  
0.0  
0.0  
0.0  
0.0  
0.0  
6.78207069588e-05  
0.000211501818159  
0.000352234239456  
0.000499234139379  
0.0  
3.08661027942e-05  
0.00023488502116  
0.000594488113999  
0.00106921663986  
0.00153204667852  
0.00163171643389  
0.001361080196  
0.00115897266554  
0.00125517403235  
0.00154718980793  
0.00158614822014  
0.00120633967467  
0.000652201032567  
0.000205658043745  
1.33605466677e-05  
0.0  
0.0  
0.0  
6.92579720329e-06  
1.73314928295e-05  
6.24117050052e-05  
0.000149859278689  
0.000253399496022  
0.000346505832182  
0.000421377257005  
0.000483489505917  
0.000525535956537  
0.000548028981381  
0.000551863915799  
0.00054415612911  
0.00052844697261  
0.000536493253829  
0.000549145142171  
0.000544033791879  
0.000520867100495  
0.000481739527365  
0.000430411159422  
0.00037074631893  
0.000307275816874  
0.000231481264631  
0.000144512985088  
6.96744394417e-05  
2.42366600455e-05  
5.33284308313e-06  
0.0  
0.0  
0.000577106136992  
0.000937212108132  
0.00112845903667  
0.000662672133763  
0.000646412622869  
0.000706104897035  
0.000715526178937  
0.000709653714753  
0.000742917866804  
0.000701643668667  
0.000610125477713  
0.000544954298891  
0.00059931883334  
0.000464870766357  
0.000619781070542  
0.000783721436154  
0.000853571388571  
0.000852982624031  
0.000810096841856  
0.000762965961382  
0.000725398945975  
0.000704313457124  
0.00164780437839  
0.00154450417385  
0.00118473518477  
0.000776003860274  
0.000760223879849  
0.00113820622822  
0.00160194803183  
0.0016673554809  
0.00125973837896  
0.000409846624697  
0.000159918383222  
4.15400467015e-06  
0.0  
0.0  
0.0  
0.0  
0.0  
6.67167737907e-05  
0.000408680212958  
0.000423623144751  
0.000293699646225  
0.000134702660661  
9.54528719084e-06  
0.0  
0.0  
0.0  
0.0  
0.0  
0.0  
0.0  
1.64297453663e-05  
0.000158498203345  
0.000323000919953  
0.000442690650754  
0.000148580631789  
0.00055856150035  
0.00101701227824  
0.00126544225738  
0.00162139246436  
0.00165149012214  
0.00126980074195  
0.000894582017429  
0.000950602772208  
0.00137742147222  
0.00166749819955  
0.0014857792127  
0.000922750377812  
0.000386866516986  
6.83931435577e-05  
0.000303957689955  
0.000205633137589  
0.000219027274342  
0.000306482878169  
0.000426811811313  
0.000532299599022  
0.000593507601196  
0.000624511210694  
0.000643707838825  
0.000664519306109  
0.000635475140069  
0.000578306470389  
0.00050372239317  
0.000525030506153  
0.000582156828733  
0.00060996580462  
0.000606593314038  
0.000587241031604  
0.000563139627806  
0.000534454278634  
0.000488276651851  
0.000410950682306  
0.000316316254329  
0.000254118326322  
0.000216887224026  
0.000162981896506  
0.000551685765258  
0.000904610009924  
0.000553281202336  
0.0004164178731  
0.000467292712288  
0.0  
0.000403937526066  
0.000255465606023  
5.79115454447e-05  
0.0  
0.000267883044636  
0.000620171961825  
0.000677682612691  
0.000685431656617  
0.0011173416704  
0.000548633663802  
0.000694083126682  
0.000652267841757  
0.000841306460075  
0.000934876645164  
0.00102226076605  
0.0  
0.0  
0.000759407995475  
2.41561565427e-05  
0.000704559775388  
0.000845711860152  
0.0010067769912  
0.00116898370234  
0.00135074435476  
0.00155537436345  
0.00166755512116  
0.00129053269466  
0.00134286762476  
0.00120809182095  
0.00107335508171  
0.00094174292052  
0.00080679325764  
0.000697268450875  
0.00125860796097  
0.00102862050022  
0.00106573755212  
0.00111210143686  
0.00111134407189  
0.00105952059403  
0.00123074224441  
0.00165105173857  
0.000312480635386  
0.000108312996041  
6.02600841645e-05  
0.0  
4.29486440244e-05  
5.19394247289e-05  
6.79688959365e-05  
0.000121373080913  
0.000316148476401  
0.000170263570652  
5.95471140816e-05  
3.61494845732e-06  
0.0  
0.0  
0.0  
0.0  
0.0  
0.0  
0.0  
0.0  
0.0  
6.11037053886e-06  
6.65098316574e-05  
0.000177189806771  
0.000320297823751  
0.000520876678054  
0.0  
0.0  
0.0  
3.19691504329e-05  
0.000180414348324  
0.000553173683454  
0.0010880198308  
0.00138672406164  
0.0013643117399  
0.00137946540704  
0.00135851528637  
0.00137516672153  
0.00111994906091  
0.000616067151761  
0.000218066116845  
3.57098266244e-05  
0.0  
0.0  
0.0  
0.0  
0.0  
0.0  
0.0  
0.0  
1.28323554598e-05  
3.49178798415e-05  
7.26577663012e-05  
0.000137708129049  
0.000234301238403  
0.000348067186295  
0.000455398960531  
0.000546256724364  
0.000611625088296  
0.000647766380929  
0.000642375893293  
0.0005183842009  
0.000646607641859  
0.000652795593197  
0.000615906436952  
0.000546694206577  
0.000447545471921  
0.000329336222354  
0.000206466617291  
0.000113290503631  
5.81271500634e-05  
3.11262376119e-05  
1.37946004007e-05  
0.0  
0.0  
0.0  
0.0  
0.0  
0.0  
0.000327244671863  
0.00148318882276  
0.00121116872177  
0.000648896522456  
0.000648564422533  
0.000664022749712  
0.000740815255066  
0.00111691907387  
0.00106160536286  
0.000909684416989  
0.000719019685626  
0.00082278573236  
0.00155172669261  
0.00156304413868  
0.00160547966157  
0.00123587830149  
0.00054995619217  
0.0  
0.0  
0.0  
7.64222517455e-06  
0.000161669036422  
0.000483049490086  
0.000327240496713  
0.000179999594566  
4.60620158994e-05  
0.0  
0.0  
0.0  
0.0  
0.0  
0.0  
0.0  
0.0  
0.0  
5.9170688368e-05  
0.000199033623561  
0.000341453197301  
0.000490660680763  
0.0  
2.57130332493e-05  
0.000189873900667  
0.000476484802263  
0.000866187086009  
0.00125632588813  
0.00131169293681  
0.00105565374508  
0.000883976198388  
0.000961437683168  
0.00123498415373  
0.0013044513193  
0.000989082173875  
0.000526600723387  
0.000163349209013  
1.0200692822e-05  
0.0  
0.0  
0.0  
4.71470628087e-06  
2.20770108185e-05  
7.30702143165e-05  
0.000153248463032  
0.000246311619953  
0.000326917624466  
0.000392548444859  
0.000450384784337  
0.000496699102923  
0.00053309395399  
0.000555229856927  
0.000562379230214  
0.000548507952286  
0.000557453667011  
0.000567945223435  
0.000548637283165  
0.000508050634415  
0.000455603148645  
0.000399018018659  
0.00034182320317  
0.000286883068054  
0.000224233238717  
0.000148443132311  
8.02423219012e-05  
2.87810082169e-05  
7.20685063656e-06  
0.0  
0.0  
0.000547412885282  
0.000886188605226  
0.00104075242011  
0.000630377420718  
0.000615422996788  
0.000669175104759  
0.000684745540224  
0.000698632469876  
0.000765520860439  
0.000738057804534  
0.000642621509146  
0.00054665172836  
0.000569440860724  
0.000479968263718  
0.000657136779651  
0.000823739927861  
0.000887705798532  
0.000872719640966  
0.000813964968233  
0.000751590431722  
0.000699672292886  
0.000666273877553  
0.00144366996373  
0.00136575159896  
0.00103077464839  
0.000704659117808  
0.000701598535122  
0.00100634102204  
0.00140717062557  
0.00147667053924  
0.0011476991881  
0.000391770272737  
0.000152510752604  
4.49715010532e-06  
0.0  
0.0  
0.0  
0.0  
0.0  
6.35739108163e-05  
0.000389976845355  
0.00043455295967  
0.000296581613043  
0.000133242846869  
9.3762039103e-06  
0.0  
0.0  
0.0  
0.0  
0.0  
0.0  
0.0  
1.51136595023e-05  
0.000157156337572  
0.000326016115738  
0.000454573241373  
0.000132440949951  
0.000486672658763  
0.000871543297027  
0.00106774666844  
0.00137747355436  
0.00138778318269  
0.00103324187813  
0.000701624691629  
0.000752795490913  
0.00114220112961  
0.00141555539562  
0.00127540734084  
0.000797099125422  
0.000338957954666  
5.93590777436e-05  
0.00028145220526  
0.000201335312381  
0.000232292606761  
0.000330551204321  
0.000447243585351  
0.000541698247006  
0.000589191572243  
0.000606523521204  
0.00061378335316  
0.000628179259286  
0.000608222097712  
0.000569060538109  
0.000510398789228  
0.000531733075237  
0.000572152658915  
0.000583285772569  
0.000571520856882  
0.000554064944  
0.000539225265632  
0.000524213102714  
0.000493991127479  
0.000430853433807  
0.000338365114418  
0.000260627439621  
0.000208032219141  
0.000149102190486  
0.000534356498071  
0.000814957427331  
0.000502997382332  
0.000413958567881  
0.000460992912362  
0.0  
0.000399909353199  
0.000248978132707  
5.52908575215e-05  
0.0  
0.000261420150564  
0.000597188359103  
0.000642620981073  
0.000649448417689  
0.00099725238003  
0.000527270061113  
0.000661870417024  
0.000611304891242  
0.000846983553125  
0.000956773588932  
0.00106143224174  
0.0  
0.0  
0.00074706319089  
4.85976744356e-05  
0.000694953223546  
0.00084389514  
0.00101652117899  
0.00118774079956  
0.00136879383962  
0.00155628552466  
0.00163782560588  
0.00128122212705  
0.00135611995039  
0.00122788386452  
0.00108926079444  
0.000947829264956  
0.000802595619267  
0.000687543524189  
0.00118875517086  
0.00097314527903  
0.00103311045894  
0.00108820762226  
0.00107104389577  
0.000996531385668  
0.00115675585822  
0.0015691989753  
0.000307367980737  
0.000103836160621  
6.4464618863e-05  
0.0  
6.03687456733e-05  
6.54174837507e-05  
7.14603845332e-05  
0.000116334683405  
0.000290759651977  
0.000146630837749  
4.51471874951e-05  
3.80264410869e-07  
0.0  
0.0  
0.0  
0.0  
0.0  
0.0  
0.0  
0.0  
0.0  
2.69976290177e-06  
5.21549573199e-05  
0.000153658153232  
0.000294962755157  
0.000497545127236  
0.0  
0.0  
0.0  
2.4505409036e-05  
0.000164053470755  
0.000542167846097  
0.00106116488757  
0.00134057355794  
0.00131069625424  
0.00133688883351  
0.00130736770244  
0.00132986153352  
0.00109015790243  
0.000598976581143  
0.000197520481783  
2.72592967257e-05  
0.0  
0.0  
0.0  
0.0  
0.0  
0.0  
0.0  
0.0  
1.27308531425e-05  
3.31906096657e-05  
6.799952995e-05  
0.000132110085071  
0.000229855075894  
0.000346180266299  
0.000458083704805  
0.00055344619328  
0.000619261379565  
0.000645831025598  
0.000624609516048  
0.000495078080759  
0.000628857643109  
0.000650897926124  
0.00062351906852  
0.000553943634594  
0.000450608316843  
0.000328371248638  
0.000203227473235  
0.000108598317096  
5.40505373363e-05  
2.94405248606e-05  
1.36783508424e-05  
0.0  
0.0  
0.0  
0.0  
0.0  
0.0  
0.00032148114459  
0.00141352334627  
0.0011586480635  
0.000638526421071  
0.000637658947955  
0.000654597107106  
0.000748332275235  
0.0011303364076  
0.00105564598912  
0.00087319387034  
0.000696477974947  
0.000817686962639  
0.00147562470643  
0.00149338484354  
0.00153113980454  
0.00117031533861  
0.00054352701786  
0.0  
0.0  
0.0  
7.15044587982e-06  
0.000159759864596  
0.000466666790878  
0.000310849844349  
0.00016424235324  
3.75012479581e-05  
0.0  
0.0  
0.0  
0.0  
0.0  
0.0  
0.0  
0.0  
0.0  
5.08966115378e-05  
0.000184246859987  
0.000326139644812  
0.000474802492805  
0.0  
2.09295242598e-05  
0.000162820482985  
0.000419521788265  
0.000790261043565  
0.0011656281361  
0.00121838684353  
0.000975722220761  
0.00081762136798  
0.000890205534591  
0.00114599415326  
0.00120882898528  
0.000904406258214  
0.000465820270367  
0.000137390408663  
6.42436142004e-06  
0.0  
0.0  
0.0  
3.39519337625e-06  
2.33437329763e-05  
7.86288173283e-05  
0.00015721920521  
0.000247086533955  
0.00032156484139  
0.000382554295251  
0.000438226744764  
0.000486494582062  
0.000529384374052  
0.000559099948229  
0.000569429186771  
0.000548135485902  
0.000557874480463  
0.000575602173452  
0.000553103029292  
0.000505351151069  
0.00044692897933  
0.000388059280129  
0.000332123746581  
0.000281340987219  
0.000224807098535  
0.000152352144025  
8.51530060074e-05  
2.96592717811e-05  
7.17444692749e-06  
0.0  
0.0  
0.000540936369681  
0.000836578254915  
0.000985571405861  
0.000621137626668  
0.000607398226957  
0.000657274486554  
0.000673588869596  
0.000697478104053  
0.000779502501216  
0.000752372656153  
0.000645727335725  
0.000530970364016  
0.000539493650228  
0.000473826764975  
0.000662391463758  
0.000837022929204  
0.000905189790353  
0.000886926285306  
0.000820499683215  
0.000748869837687  
0.000689999338668  
0.000654092982693  
0.00135138382297  
0.00128029884091  
0.00095305563195  
0.000652646773997  
0.000653887054498  
0.00093476320312  
0.00131890722647  
0.00138718618251  
0.00109091178031  
0.000387907480617  
0.000150646818435  
4.03603053715e-06  
0.0  
0.0  
0.0  
0.0  
0.0  
6.17080976834e-05  
0.000386275147086  
0.000431740364806  
0.000290792443791  
0.000126573114341  
8.42848852729e-06  
0.0  
0.0  
0.0  
0.0  
0.0  
0.0  
0.0  
1.24673529218e-05  
0.000151098210769  
0.000321691058945  
0.000453284744878  
0.000118979677869  
0.000444322252593  
0.000795439886502  
0.000973111166631  
0.00126727548526  
0.00127090711366  
0.000927276914399  
0.000613458386526  
0.00066270629286  
0.0010355237476  
0.0013023117122  
0.00117556664965  
0.000728909304748  
0.00030665463002  
5.01495623574e-05  
0.000264287399024  
0.000193509098612  
0.000232822834791  
0.000339107274465  
0.000458114277666  
0.000549913496484  
0.000591567927854  
0.000601630430135  
0.00060245583887  
0.000614459129561  
0.000599217027249  
0.000567696930348  
0.000513048402912  
0.00053532812972  
0.000570737186041  
0.000574086867528  
0.000557746947105  
0.000541170947767  
0.000531372644151  
0.000523440646696  
0.000500292942386  
0.000440786951542  
0.000344138040332  
0.000256666072538  
0.000197930873498  
0.000137835256153  
0.000530153629955  
0.000766744580501  
0.000471127089991  
0.000412388750139  
0.00045976086581  
0.0  
0.000384711610603  
0.000245211716137  
5.33110231699e-05  
0.0  
0.000258206744576  
0.000591114533792  
0.000630297293827  
0.00063547748352  
0.000934726253677  
0.000522486774988  
0.000651141522188  
0.000580144660023  
0.000853268960304  
0.000972103042139  
0.00108059286934  
0.0  
0.0  
0.000743018889562  
6.24072547268e-05  
0.000692700703658  
0.000843420495262  
0.00101928182019  
0.00119285122881  
0.00137224922697  
0.00155261984941  
0.00162396212545  
0.00127399137879  
0.00135724339715  
0.00123273512673  
0.00109379119701  
0.00094954126692  
0.000801528393219  
0.000685366630977  
0.00116418055751  
0.000952035360224  
0.00101694907696  
0.00107398063169  
0.0010530487926  
0.000973081895659  
0.0011293769784  
0.00154088186599  
0.000305727840374  
0.000101601910308  
6.46584213496e-05  
0.0  
6.54080198441e-05  
6.88447583605e-05  
7.14647956836e-05  
0.000113960208917  
0.000283865474804  
0.000140153124299  
4.11030193428e-05  
0.0  
0.0  
0.0  
0.0  
0.0  
0.0  
0.0  
0.0  
0.0  
0.0  
1.69087238491e-06  
4.80651376608e-05  
0.000147165713502  
0.000288061139193  
0.000491476936869  
0.0  
0.0  
0.0  
2.24978570174e-05  
0.000162179190957  
0.000542901597607  
0.00105662365832  
0.0013252882693  
0.00129028159027  
0.0013157384514  
0.00128782469045  
0.00131555078014  
0.00108521211746  
0.000598160699506  
0.000194446419688  
2.49990879983e-05  
0.0  
0.0  
0.0  
0.0  
0.0  
0.0  
0.0  
0.0  
1.28976057871e-05  
3.28950237033e-05  
6.72307427109e-05  
0.000130990298077  
0.000229032798585  
0.000345900706488  
0.000458935258064  
0.00055519315566  
0.000620056191431  
0.000643051020798  
0.000618426469116  
0.000489023570499  
0.000622675120491  
0.000648128139163  
0.000624297427708  
0.000555677926737  
0.000451521074779  
0.000328313000162  
0.000202716229399  
0.0001077292249  
5.33016997271e-05  
2.915956732e-05  
1.38217116158e-05  
0.0  
0.0  
0.0  
0.0  
0.0  
0.0  
0.000319641151534  
0.00138905738532  
0.00113896844654  
0.000636271426203  
0.000635174721157  
0.00065244340983  
0.000751227758835  
0.00113168383184  
0.00104943298303  
0.00085756799952  
0.000685535438547  
0.000812006981155  
0.00145003381361  
0.00147096597722  
0.00150680216688  
0.00114792854588  
0.000542350756485  
0.0  
0.0  
0.0  
6.86616560335e-06  
0.000159165081285  
0.000461034968854  
0.000305208328325  
0.000158884535212  
3.45213494107e-05  
0.0  
0.0  
0.0  
0.0  
0.0  
0.0  
0.0  
0.0  
0.0  
4.79895496403e-05  
0.000179126164828  
0.000320772545164  
0.000469292718779  
0.0  
1.90778779623e-05  
0.000154026288109  
0.0004037895948  
0.00077222247191  
0.00114691854439  
0.00120127111497  
0.000963882147084  
0.00081027263324  
0.000881839879816  
0.00113078024379  
0.00118856628119  
0.00088370450705  
0.000448949759115  
0.000128869651272  
4.84156239588e-06  
0.0  
0.0  
0.0  
2.73196992565e-06  
2.34438056544e-05  
8.02165103904e-05  
0.000158719477207  
0.000248097933123  
0.000320845653472  
0.000380429007866  
0.00043540038486  
0.000484196767367  
0.000528875627389  
0.000560418194907  
0.000570626657205  
0.000546241780989  
0.000556237418834  
0.000577029608772  
0.000554582537032  
0.000505083179223  
0.000445048940083  
0.000385599238489  
0.000330114576027  
0.000280595779408  
0.000225741527749  
0.000153700710377  
8.64388093745e-05  
2.95630474052e-05  
6.94142997478e-06  
0.0  
0.0  
0.000539672302194  
0.000818392087719  
0.000966730214188  
0.000619340306483  
0.000605937107034  
0.000654549361355  
0.000670867112236  
0.000697823636894  
0.000783718119326  
0.000755430451037  
0.000644181060438  
0.000523334541874  
0.000527916565974  
0.000469283715056  
0.000661485862701  
0.000839265620613  
0.000909968206737  
0.000891484402418  
0.000823004779887  
0.000748537342738  
0.000687735238849  
0.000651340459429  
0.00132414464166  
0.00125421218336  
0.000929653435811  
0.000634827593203  
0.000636838578633  
0.000912267236951  
0.00129273437335  
0.00136035894395  
0.00107206480393  
0.000387260360632  
0.000150054687625  
3.76291743625e-06  
0.0  
0.0  
0.0  
0.0  
0.0  
6.09922691239e-05  
0.000385665000677  
0.000429419948146  
0.000287776185598  
0.000123583372197  
7.97135309768e-06  
0.0  
0.0  
0.0  
0.0  
0.0  
0.0  
0.0  
1.18138697189e-05  
0.000148355004981  
0.000319289628864  
0.000451518492579  
0.000113915210821  
0.000430442822354  
0.000772295556698  
0.000946127593439  
0.00123713582166  
0.00124084781894  
0.000901193989651  
0.00059274638563  
0.000641292471688  
0.00100805628733  
0.0012717785504  
0.00114705575035  
0.000707507101396  
0.000295271214346  
4.63811138904e-05  
0.000257916563718  
0.000189897366089  
0.000231660874623  
0.000340692576171  
0.000461245874789  
0.000552887946865  
0.000593040890677  
0.000600937707254  
0.000599807704567  
0.000611208904295  
0.00059736267142  
0.000567741882266  
0.000513286321658  
0.000535990442862  
0.000570843738053  
0.000572150637681  
0.000554425440663  
0.000538081951895  
0.000529826483442  
0.000523997901384  
0.000502662498293  
0.000443460224155  
0.000344642626411  
0.000253991592724  
0.00019373769237  
0.00013348771759  
0.000529540539509  
0.000750911327709  
0.000460142656656  
0.000411558508448  
0.000459436010114  
0.0  
0.000377708483169  
0.00024377850109  
5.25320019738e-05  
0.0  
0.00025699158053  
0.000590146201313  
0.000627553983212  
0.00063211080244  
0.000914910626557  
0.000521828062686  
0.000648637583807  
0.000568765924203  
0.00085555084921  
0.000976959657518  
0.00108549971692  
0.0  
0.0  
0.000742228163685  
6.59717931079e-05  
0.000694953223546  
0.00084389514  
0.00101652117899  
0.00118774079956  
0.00136879383962  
0.00155628552466  
0.00163782560588  
0.00128122212705  
0.00135611995039  
0.00122788386452  
0.00108926079444  
0.000947829264956  
0.000802595619267  
0.000687543524189  
0.00118875517086  
0.00097314527903  
0.00103311045894  
0.00108820762226  
0.00107104389577  
0.000996531385668  
0.00115675585822  
0.0015691989753  
0.000307367980737  
0.000103836160621  
6.4464618863e-05  
0.0  
6.03687456733e-05  
6.54174837507e-05  
7.14603845332e-05  
0.000116334683405  
0.000290759651977  
0.000146630837749  
4.51471874951e-05  
3.80264410869e-07  
0.0  
0.0  
0.0  
0.0  
0.0  
0.0  
0.0  
0.0  
0.0  
2.69976290177e-06  
5.21549573199e-05  
0.000153658153232  
0.000294962755157  
0.000497545127236  
0.0  
0.0  
0.0  
2.4505409036e-05  
0.000164053470755  
0.000542167846097  
0.00106116488757  
0.00134057355794  
0.00131069625424  
0.00133688883351  
0.00130736770244  
0.00132986153352  
0.00109015790243  
0.000598976581143  
0.000197520481783  
2.72592967257e-05  
0.0  
0.0  
0.0  
0.0  
0.0  
0.0  
0.0  
0.0  
1.27308531425e-05  
3.31906096657e-05  
6.799952995e-05  
0.000132110085071  
0.000229855075894  
0.000346180266299  
0.000458083704805  
0.00055344619328  
0.000619261379565  
0.000645831025598  
0.000624609516048  
0.000495078080759  
0.000628857643109  
0.000650897926124  
0.00062351906852  
0.000553943634594  
0.000450608316843  
0.000328371248638  
0.000203227473235  
0.000108598317096  
5.40505373363e-05  
2.94405248606e-05  
1.36783508424e-05  
0.0  
0.0  
0.0  
0.0  
0.0  
0.0  
0.00032148114459  
0.00141352334627  
0.0011586480635  
0.000638526421071  
0.000637658947955  
0.000654597107106  
0.000748332275235  
0.0011303364076  
0.00105564598912  
0.00087319387034  
0.000696477974947  
0.000817686962639  
0.00147562470643  
0.00149338484354  
0.00153113980454  
0.00117031533861  
0.00054352701786  
0.0  
0.0  
0.0  
7.15044587982e-06  
0.000159759864596  
0.000466666790878  
0.000310849844349  
0.00016424235324  
3.75012479581e-05  
0.0  
0.0  
0.0  
0.0  
0.0  
0.0  
0.0  
0.0  
0.0  
5.08966115378e-05  
0.000184246859987  
0.000326139644812  
0.000474802492805  
0.0  
2.09295242598e-05  
0.000162820482985  
0.000419521788265  
0.000790261043565  
0.0011656281361  
0.00121838684353  
0.000975722220761  
0.00081762136798  
0.000890205534591  
0.00114599415326  
0.00120882898528  
0.000904406258214  
0.000465820270367  
0.000137390408663  
6.42436142004e-06  
0.0  
0.0  
0.0  
3.39519337625e-06  
2.33437329763e-05  
7.86288173283e-05  
0.00015721920521  
0.000247086533955  
0.00032156484139  
0.000382554295251  
0.000438226744764  
0.000486494582062  
0.000529384374052  
0.000559099948229  
0.000569429186771  
0.000548135485902  
0.000557874480463  
0.000575602173452  
0.000553103029292  
0.000505351151069  
0.00044692897933  
0.000388059280129  
0.000332123746581  
0.000281340987219  
0.000224807098535  
0.000152352144025  
8.51530060074e-05  
2.96592717811e-05  
7.17444692749e-06  
0.0  
0.0  
0.000540936369681  
0.000836578254915  
0.000985571405861  
0.000621137626668  
0.000607398226957  
0.000657274486554  
0.000673588869596  
0.000697478104053  
0.000779502501216  
0.000752372656153  
0.000645727335725  
0.000530970364016  
0.000539493650228  
0.000473826764975  
0.000662391463758  
0.000837022929204  
0.000905189790353  
0.000886926285306  
0.000820499683215  
0.000748869837687  
0.000689999338668  
0.000654092982693  
0.00135138382297  
0.00128029884091  
0.00095305563195  
0.000652646773997  
0.000653887054498  
0.00093476320312  
0.00131890722647  
0.00138718618251  
0.00109091178031  
0.000387907480617  
0.000150646818435  
4.03603053715e-06  
0.0  
0.0  
0.0  
0.0  
0.0  
6.17080976834e-05  
0.000386275147086  
0.000431740364806  
0.000290792443791  
0.000126573114341  
8.42848852729e-06  
0.0  
0.0  
0.0  
0.0  
0.0  
0.0  
0.0  
1.24673529218e-05  
0.000151098210769  
0.000321691058945  
0.000453284744878  
0.000118979677869  
0.000444322252593  
0.000795439886502  
0.000973111166631  
0.00126727548526  
0.00127090711366  
0.000927276914399  
0.000613458386526  
0.00066270629286  
0.0010355237476  
0.0013023117122  
0.00117556664965  
0.000728909304748  
0.00030665463002  
5.01495623574e-05  
0.000264287399024  
0.000193509098612  
0.000232822834791  
0.000339107274465  
0.000458114277666  
0.000549913496484  
0.000591567927854  
0.000601630430135  
0.00060245583887  
0.000614459129561  
0.000599217027249  
0.000567696930348  
0.000513048402912  
0.00053532812972  
0.000570737186041  
0.000574086867528  
0.000557746947105  
0.000541170947767  
0.000531372644151  
0.000523440646696  
0.000500292942386  
0.000440786951542  
0.000344138040332  
0.000256666072538  
0.000197930873498  
0.000137835256153  
0.000530153629955  
0.000766744580501  
0.000471127089991  
0.000412388750139  
0.00045976086581  
0.0  
0.000384711610603  
0.000245211716137  
5.33110231699e-05  
0.0  
0.000258206744576  
0.000591114533792  
0.000630297293827  
0.00063547748352  
0.000934726253677  
0.000522486774988  
0.000651141522188  
0.000580144660023  
0.000853268960304  
0.000972103042139  
0.00108059286934  
0.0  
0.0  
0.000743018889562  
6.24072547268e-05  
0.000704559775388  
0.000845711860152  
0.0010067769912  
0.00116898370234  
0.00135074435476  
0.00155537436345  
0.00166755512116  
0.00129053269466  
0.00134286762476  
0.00120809182095  
0.00107335508171  
0.00094174292052  
0.00080679325764  
0.000697268450875  
0.00125860796097  
0.00102862050022  
0.00106573755212  
0.00111210143686  
0.00111134407189  
0.00105952059403  
0.00123074224441  
0.00165105173857  
0.000312480635386  
0.000108312996041  
6.02600841645e-05  
0.0  
4.29486440244e-05  
5.19394247289e-05  
6.79688959365e-05  
0.000121373080913  
0.000316148476401  
0.000170263570652  
5.95471140816e-05  
3.61494845732e-06  
0.0  
0.0  
0.0  
0.0  
0.0  
0.0  
0.0  
0.0  
0.0  
6.11037053886e-06  
6.65098316574e-05  
0.000177189806771  
0.000320297823751  
0.000520876678054  
0.0  
0.0  
0.0  
3.19691504329e-05  
0.000180414348324  
0.000553173683454  
0.0010880198308  
0.00138672406164  
0.0013643117399  
0.00137946540704  
0.00135851528637  
0.00137516672153  
0.00111994906091  
0.000616067151761  
0.000218066116845  
3.57098266244e-05  
0.0  
0.0  
0.0  
0.0  
0.0  
0.0  
0.0  
0.0  
1.28323554598e-05  
3.49178798415e-05  
7.26577663012e-05  
0.000137708129049  
0.000234301238403  
0.000348067186295  
0.000455398960531  
0.000546256724364  
0.000611625088296  
0.000647766380929  
0.000642375893293  
0.0005183842009  
0.000646607641859  
0.000652795593197  
0.000615906436952  
0.000546694206577  
0.000447545471921  
0.000329336222354  
0.000206466617291  
0.000113290503631  
5.81271500634e-05  
3.11262376119e-05  
1.37946004007e-05  
0.0  
0.0  
0.0  
0.0  
0.0  
0.0  
0.000327244671863  
0.00148318882276  
0.00121116872177  
0.000648896522456  
0.000648564422533  
0.000664022749712  
0.000740815255066  
0.00111691907387  
0.00106160536286  
0.000909684416989  
0.000719019685626  
0.00082278573236  
0.00155172669261  
0.00156304413868  
0.00160547966157  
0.00123587830149  
0.00054995619217  
0.0  
0.0  
0.0  
7.64222517455e-06  
0.000161669036422  
0.000483049490086  
0.000327240496713  
0.000179999594566  
4.60620158994e-05  
0.0  
0.0  
0.0  
0.0  
0.0  
0.0  
0.0  
0.0  
0.0  
5.9170688368e-05  
0.000199033623561  
0.000341453197301  
0.000490660680763  
0.0  
2.57130332493e-05  
0.000189873900667  
0.000476484802263  
0.000866187086009  
0.00125632588813  
0.00131169293681  
0.00105565374508  
0.000883976198388  
0.000961437683168  
0.00123498415373  
0.0013044513193  
0.000989082173875  
0.000526600723387  
0.000163349209013  
1.0200692822e-05  
0.0  
0.0  
0.0  
4.71470628087e-06  
2.20770108185e-05  
7.30702143165e-05  
0.000153248463032  
0.000246311619953  
0.000326917624466  
0.000392548444859  
0.000450384784337  
0.000496699102923  
0.00053309395399  
0.000555229856927  
0.000562379230214  
0.000548507952286  
0.000557453667011  
0.000567945223435  
0.000548637283165  
0.000508050634415  
0.000455603148645  
0.000399018018659  
0.00034182320317  
0.000286883068054  
0.000224233238717  
0.000148443132311  
8.02423219012e-05  
2.87810082169e-05  
7.20685063656e-06  
0.0  
0.0  
0.000547412885282  
0.000886188605226  
0.00104075242011  
0.000630377420718  
0.000615422996788  
0.000669175104759  
0.000684745540224  
0.000698632469876  
0.000765520860439  
0.000738057804534  
0.000642621509146  
0.00054665172836  
0.000569440860724  
0.000479968263718  
0.000657136779651  
0.000823739927861  
0.000887705798532  
0.000872719640966  
0.000813964968233  
0.000751590431722  
0.000699672292886  
0.000666273877553  
0.00144366996373  
0.00136575159896  
0.00103077464839  
0.000704659117808  
0.000701598535122  
0.00100634102204  
0.00140717062557  
0.00147667053924  
0.0011476991881  
0.000391770272737  
0.000152510752604  
4.49715010532e-06  
0.0  
0.0  
0.0  
0.0  
0.0  
6.35739108163e-05  
0.000389976845355  
0.00043455295967  
0.000296581613043  
0.000133242846869  
9.3762039103e-06  
0.0  
0.0  
0.0  
0.0  
0.0  
0.0  
0.0  
1.51136595023e-05  
0.000157156337572  
0.000326016115738  
0.000454573241373  
0.000132440949951  
0.000486672658763  
0.000871543297027  
0.00106774666844  
0.00137747355436  
0.00138778318269  
0.00103324187813  
0.000701624691629  
0.000752795490913  
0.00114220112961  
0.00141555539562  
0.00127540734084  
0.000797099125422  
0.000338957954666  
5.93590777436e-05  
0.00028145220526  
0.000201335312381  
0.000232292606761  
0.000330551204321  
0.000447243585351  
0.000541698247006  
0.000589191572243  
0.000606523521204  
0.00061378335316  
0.000628179259286  
0.000608222097712  
0.000569060538109  
0.000510398789228  
0.000531733075237  
0.000572152658915  
0.000583285772569  
0.000571520856882  
0.000554064944  
0.000539225265632  
0.000524213102714  
0.000493991127479  
0.000430853433807  
0.000338365114418  
0.000260627439621  
0.000208032219141  
0.000149102190486  
0.000534356498071  
0.000814957427331  
0.000502997382332  
0.000413958567881  
0.000460992912362  
0.0  
0.000399909353199  
0.000248978132707  
5.52908575215e-05  
0.0  
0.000261420150564  
0.000597188359103  
0.000642620981073  
0.000649448417689  
0.00099725238003  
0.000527270061113  
0.000661870417024  
0.000611304891242  
0.000846983553125  
0.000956773588932  
0.00106143224174  
0.0  
0.0  
0.00074706319089  
4.85976744356e-05  
0.000727353927691  
0.000845881213046  
0.000987866666638  
0.00113501579643  
0.0013032302136  
0.00150759179803  
0.00164859274011  
0.00125361234222  
0.00128897634773  
0.00116584844556  
0.00104608619713  
0.000929232414067  
0.000812651911793  
0.000722454480109  
0.00138708805573  
0.0011006654484  
0.00105790180512  
0.00108324956507  
0.00112632272789  
0.00114554039891  
0.00133939397253  
0.00178453395137  
0.000324536536817  
0.000104029894211  
4.09125537391e-05  
0.0  
1.89437452541e-05  
2.61625950694e-05  
4.66502720599e-05  
0.000116851292797  
0.000373781117211  
0.000222853059491  
9.92021743583e-05  
1.17030826457e-05  
0.0  
0.0  
0.0  
0.0  
0.0  
0.0  
0.0  
0.0  
0.0  
1.44999840417e-05  
0.000105571414823  
0.000228554043225  
0.000377305180673  
0.000575072916015  
0.0  
0.0  
0.0  
4.71572906975e-05  
0.000245535034169  
0.000670634932388  
0.00124179721865  
0.00168160593507  
0.00163028237577  
0.00160894908242  
0.00162184802234  
0.00167355007993  
0.00128787630198  
0.000746575421195  
0.000291247173678  
5.26293584165e-05  
0.0  
0.0  
0.0  
0.0  
0.0  
0.0  
0.0  
0.0  
1.51430458668e-05  
4.05354956487e-05  
8.86728007555e-05  
0.000156173946364  
0.000251866016984  
0.000357742140217  
0.000452593549275  
0.000529979201052  
0.000585333221761  
0.000623568926159  
0.000652422625054  
0.000572634929956  
0.000656514276796  
0.000628512783515  
0.000589485154148  
0.000529808901285  
0.00044328430294  
0.000336691328535  
0.000221512857959  
0.000130123782522  
7.13254351367e-05  
3.67825653598e-05  
1.60050276396e-05  
0.0  
0.0  
0.0  
0.0  
0.0  
0.0  
0.000340340938772  
0.00154146507971  
0.00124870972407  
0.000682681843588  
0.000681643108776  
0.000690013780638  
0.000735412919002  
0.00106489688627  
0.00102211811842  
0.000920604885838  
0.000720579663029  
0.000789117316664  
0.00169543915754  
0.00173127388598  
0.00176615399697  
0.0013346735777  
0.000579880819237  
0.0  
0.0  
0.0  
7.82903818256e-06  
0.000169792888949  
0.000492784763565  
0.00033996560084  
0.00019414963152  
5.3641002692e-05  
0.0  
0.0  
0.0  
0.0  
0.0  
0.0  
0.0  
0.0  
0.0  
6.78207069588e-05  
0.000211501818159  
0.000352234239456  
0.000499234139379  
0.0  
3.08661027942e-05  
0.00023488502116  
0.000594488113999  
0.00106921663986  
0.00153204667852  
0.00163171643389  
0.001361080196  
0.00115897266554  
0.00125517403235  
0.00154718980793  
0.00158614822014  
0.00120633967467  
0.000652201032567  
0.000205658043745  
1.33605466677e-05  
0.0  
0.0  
0.0  
6.92579720329e-06  
1.73314928295e-05  
6.24117050052e-05  
0.000149859278689  
0.000253399496022  
0.000346505832182  
0.000421377257005  
0.000483489505917  
0.000525535956537  
0.000548028981381  
0.000551863915799  
0.00054415612911  
0.00052844697261  
0.000536493253829  
0.000549145142171  
0.000544033791879  
0.000520867100495  
0.000481739527365  
0.000430411159422  
0.00037074631893  
0.000307275816874  
0.000231481264631  
0.000144512985088  
6.96744394417e-05  
2.42366600455e-05  
5.33284308313e-06  
0.0  
0.0  
0.000577106136992  
0.000937212108132  
0.00112845903667  
0.000662672133763  
0.000646412622869  
0.000706104897035  
0.000715526178937  
0.000709653714753  
0.000742917866804  
0.000701643668667  
0.000610125477713  
0.000544954298891  
0.00059931883334  
0.000464870766357  
0.000619781070542  
0.000783721436154  
0.000853571388571  
0.000852982624031  
0.000810096841856  
0.000762965961382  
0.000725398945975  
0.000704313457124  
0.00164780437839  
0.00154450417385  
0.00118473518477  
0.000776003860274  
0.000760223879849  
0.00113820622822  
0.00160194803183  
0.0016673554809  
0.00125973837896  
0.000409846624697  
0.000159918383222  
4.15400467015e-06  
0.0  
0.0  
0.0  
0.0  
0.0  
6.67167737907e-05  
0.000408680212958  
0.000423623144751  
0.000293699646225  
0.000134702660661  
9.54528719084e-06  
0.0  
0.0  
0.0  
0.0  
0.0  
0.0  
0.0  
1.64297453663e-05  
0.000158498203345  
0.000323000919953  
0.000442690650754  
0.000148580631789  
0.00055856150035  
0.00101701227824  
0.00126544225738  
0.00162139246436  
0.00165149012214  
0.00126980074195  
0.000894582017429  
0.000950602772208  
0.00137742147222  
0.00166749819955  
0.0014857792127  
0.000922750377812  
0.000386866516986  
6.83931435577e-05  
0.000303957689955  
0.000205633137589  
0.000219027274342  
0.000306482878169  
0.000426811811313  
0.000532299599022  
0.000593507601196  
0.000624511210694  
0.000643707838825  
0.000664519306109  
0.000635475140069  
0.000578306470389  
0.00050372239317  
0.000525030506153  
0.000582156828733  
0.00060996580462  
0.000606593314038  
0.000587241031604  
0.000563139627806  
0.000534454278634  
0.000488276651851  
0.000410950682306  
0.000316316254329  
0.000254118326322  
0.000216887224026  
0.000162981896506  
0.000551685765258  
0.000904610009924  
0.000553281202336  
0.0004164178731  
0.000467292712288  
0.0  
0.000403937526066  
0.000255465606023  
5.79115454447e-05  
0.0  
0.000267883044636  
0.000620171961825  
0.000677682612691  
0.000685431656617  
0.0011173416704  
0.000548633663802  
0.000694083126682  
0.000652267841757  
0.000841306460075  
0.000934876645164  
0.00102226076605  
0.0  
0.0  
0.000759407995475  
2.41561565427e-05  
</DataArray>
</PointData>
<CellData>
</CellData>
<Points>
<DataArray type="Float64" Name="Points" NumberOfComponents="3" format="ascii">
5.52549155669 4.0 2.19709461978 
4.02991177872 4.0 2.1816224717 
7.76420307974 4.0 5.54189267719 
7.7942689275 4.0 5.04457348932 
7.80836414133 4.0 4.54876744704 
6.51186792888 4.0 1.81132108293 
6.02160725886 4.0 1.79689710633 
5.52983844013 4.0 1.78563607292 
5.03321871857 4.0 1.77712629758 
4.5371602585 4.0 1.77097905466 
8.17173729583 4.0 6.01402815139 
8.18918890117 4.0 5.535981222 
8.22135535278 4.0 4.55474965035 
6.50675577414 4.0 2.23197693842 
4.04039326718 4.0 1.7685171351 
7.73513100604 4.0 6.46070850205 
8.20537618578 4.0 5.05418539026 
8.22680454215 4.0 4.06382309856 
6.01239611117 4.0 2.61862344568 
5.51520709271 4.0 2.60447919152 
5.01919351614 4.0 2.60127251883 
5.03124673517 4.0 2.1959269044 
4.02146321071 4.0 2.59405350605 
7.3233616847 4.0 6.00210189765 
7.36711787986 4.0 5.51969662018 
7.39147853252 4.0 5.02385766874 
7.39859891198 4.0 4.52801976075 
7.40183633028 4.0 4.03822597026 
7.96374905885 4.0 7.51343040083 
2.26683224381 4.0 3.42000222032 
7.74055171878 4.0 2.3434219901 
7.45369234917 4.0 8.09424536387 
8.23138232808 4.0 3.57457960578 
8.23299949861 4.0 3.08605029348 
8.20506964632 4.0 2.59444190327 
7.49486288046 4.0 1.86651911802 
3.53228008175 4.0 1.76854055593 
3.02430030582 4.0 1.78586050391 
2.51696083907 4.0 1.82395022018 
1.72874139338 4.0 7.23529699016 
8.98847629729 4.0 9.4847415655 
7.40090813909 4.0 3.53877687378 
7.31283043428 4.0 6.48961569567 
2.46093996739 4.0 6.3590890539 
2.49231593136 4.0 5.83934135185 
2.50608171104 4.0 5.34174189264 
2.51273473686 4.0 4.85047427174 
2.52901690423 4.0 4.37507147986 
2.57482727085 4.0 3.92164137808 
2.5841021495 4.0 3.45288830251 
3.54491405784 4.0 7.53802241438 
4.07964066472 4.0 7.50771179724 
4.60992057866 4.0 7.49945476457 
5.11708064033 4.0 7.49453692571 
5.61967290399 4.0 7.487489668 
6.07223470109 4.0 7.44666980013 
6.51448861801 4.0 7.36388594662 
6.98887828831 4.0 7.33951814765 
3.0210126868 4.0 2.61412191126 
3.52425062808 4.0 2.59596847263 
6.50837820785 4.0 2.63887710116 
1.00375609411 4.0 0.500953907768 
1.50032309458 4.0 0.488992088027 
2.00100806808 4.0 0.483372584463 
2.5020973052 4.0 0.470438473591 
3.00607481316 4.0 0.470924349999 
3.50729185331 4.0 0.459883152673 
4.01033126869 4.0 0.457570769051 
4.51070258109 4.0 0.464695813863 
5.01390685469 4.0 0.471632627543 
5.51329903603 4.0 0.46709510435 
6.01297963992 4.0 0.475022528313 
6.51341035579 4.0 0.474521581291 
7.01292049101 4.0 0.480628920068 
7.51580562356 4.0 0.488183849963 
8.01141242369 4.0 0.497838869679 
8.50345311851 4.0 0.503747733647 
9.00096477628 4.0 0.504254629904 
9.50020393179 4.0 0.502930214963 
0.512183549297 4.0 9.48507336737 
1.02227204849 4.0 9.4809203521 
1.51973475889 4.0 9.48517632128 
2.01492769242 4.0 9.49979369175 
2.5064879849 4.0 9.52312524799 
3.0013620086 4.0 9.53515692102 
3.49445322315 4.0 9.52922059145 
3.98360099726 4.0 9.50866735407 
4.47470657796 4.0 9.49503496646 
4.97440325193 4.0 9.49083196854 
5.47292240611 4.0 9.48961021372 
5.97291831485 4.0 9.49014976231 
6.47248132444 4.0 9.49338409983 
6.97255567661 4.0 9.4989534023 
7.47557008962 4.0 9.50235502066 
7.98457714605 4.0 9.49733154729 
8.48980411483 4.0 9.48880350874 
9.49066049577 4.0 9.48768780873 
0.536917235384 4.0 8.9709061066 
0.540705485306 4.0 8.47528350075 
0.534790605608 4.0 7.98387354628 
0.502867614708 4.0 7.49357251545 
0.476201838394 4.0 6.99237700991 
0.466872882451 4.0 6.48726415375 
0.4725043587 4.0 5.985072171 
0.485290958355 4.0 5.48761336992 
0.501248242557 4.0 4.98511852882 
0.513557159983 4.0 4.48236871322 
0.526811442587 4.0 3.97849915114 
0.527047216181 4.0 3.48105419497 
0.513802562373 4.0 2.98880788284 
0.504301325386 4.0 2.49416632101 
0.501909975451 4.0 1.99653260202 
0.504193114595 4.0 1.4989045882 
0.501613310461 4.0 0.999733303457 
0.50136956058 4.0 0.499629741858 
9.50289083304 4.0 1.00337465644 
9.51039235175 4.0 1.50432126743 
9.52445050143 4.0 2.00500804865 
9.53540839099 4.0 2.50895577799 
9.53832354331 4.0 3.01298817041 
9.53567576153 4.0 3.51129669346 
9.52926328341 4.0 4.01153983342 
9.53822862968 4.0 4.51477376976 
9.53499184322 4.0 5.01641239396 
9.52667524311 4.0 5.51601947169 
9.51569014864 4.0 6.01496878123 
9.50687575386 4.0 6.51465135861 
9.50356071498 4.0 7.01076593899 
9.49888049129 4.0 7.50770342763 
9.49151086127 4.0 8.00197556034 
9.48954707716 4.0 8.49660190625 
9.4888026213 4.0 8.99007797489 
6.99350093411 4.0 2.64267832893 
7.34111706602 4.0 6.93383747923 
2.52881738767 4.0 6.99947251363 
2.60312183389 4.0 3.04993119656 
7.39605958774 4.0 3.05279765942 
7.73848092427 4.0 6.00977098879 
7.71938567358 4.0 6.88114791303 
2.14636551536 4.0 6.95037771282 
2.14016283079 4.0 6.55561853771 
3.0051896197 4.0 7.56937062409 
6.59603224661 4.0 7.66532577289 
6.97076680749 4.0 7.7180545898 
7.35436467203 4.0 7.29639431712 
2.58574146794 4.0 2.65376638989 
4.53110191226 4.0 2.18965418362 
6.02788739851 4.0 2.21983704978 
6.9669467469 4.0 2.23599333546 
1.00124082398 4.0 0.989509104327 
1.50134599475 4.0 0.973423496814 
2.0019734361 4.0 0.952534814388 
2.5076857151 4.0 0.936801236089 
3.01228578246 4.0 0.917073715316 
3.51874564932 4.0 0.907514775542 
4.02117426124 4.0 0.909889388155 
4.52137582658 4.0 0.907947540342 
5.02107466798 4.0 0.92060238169 
5.52111338117 4.0 0.927543305337 
6.02189041573 4.0 0.93300400192 
6.52427331192 4.0 0.942181343655 
7.02724762259 4.0 0.95497590822 
7.52777892253 4.0 0.975199894413 
8.02763365412 4.0 1.00015216436 
8.51664707798 4.0 1.01348015716 
9.00977401285 4.0 1.00961550763 
1.05541045348 4.0 8.96557501961 
1.57208548164 4.0 8.96304918955 
2.07245058186 4.0 8.98485902371 
2.5274626759 4.0 9.0496788817 
2.99946912365 4.0 9.08591913092 
3.46737552016 4.0 9.0566000074 
3.93180272256 4.0 9.00683292601 
4.42951676764 4.0 8.98646894975 
4.92894195543 4.0 8.98113910182 
5.42741091081 4.0 8.98113829502 
5.93010985532 4.0 8.98058143217 
6.42769927397 4.0 8.98969703593 
6.93332111285 4.0 9.00339211203 
7.44630052676 4.0 9.01174676536 
7.96156533131 4.0 9.00725900698 
8.47178904704 4.0 8.99499833766 
8.98133572854 4.0 8.98768860719 
1.09440933091 4.0 8.44868071818 
1.08274327508 4.0 7.96086323825 
0.998736549316 4.0 7.47241975519 
0.928189340573 4.0 6.96091582286 
0.93061703568 4.0 6.461960261 
0.945803945285 4.0 5.97691250746 
0.970924285277 4.0 5.48970219931 
0.997790595354 4.0 5.00470185 
1.02198116584 4.0 4.505495097 
1.05498264801 4.0 3.99013964377 
1.07113792044 4.0 3.4773498265 
1.03629054574 4.0 2.96621476913 
1.01666181032 4.0 2.46952032255 
1.00719075759 4.0 1.97585672996 
1.00546567054 4.0 1.48350171024 
9.02359742506 4.0 1.51281152144 
9.04365466521 4.0 2.01852387071 
9.06964650107 4.0 2.51844822287 
9.08217428528 4.0 3.02872174377 
9.08184771155 4.0 3.53150357324 
9.0860390603 4.0 4.03162208748 
9.0836002516 4.0 4.53236923564 
9.08162835601 4.0 5.03223858858 
9.06209271207 4.0 5.53029589984 
9.0478281122 4.0 6.0281164781 
9.03889949423 4.0 6.52469024597 
9.01765022138 4.0 7.02007139139 
8.999630986 4.0 7.51604225797 
8.98395754031 4.0 8.00750971049 
8.97987941259 4.0 8.49807657597 
7.39035541927 4.0 2.6682317975 
7.6395645714 4.0 7.20212298548 
2.4880017194 4.0 7.52341956913 
2.05095728082 4.0 2.77724084425 
7.80540847525 4.0 2.68150616134 
7.81507500403 4.0 3.11175026999 
7.80802357304 4.0 3.57412890321 
8.154553371 4.0 6.48935101218 
8.11959774124 4.0 6.97562421416 
2.03712676599 4.0 7.4240845364 
1.74872309363 4.0 6.87665921727 
1.8384531554 4.0 6.4002263314 
1.92084955626 4.0 6.054399519 
1.98417711083 4.0 5.65667848873 
2.00437514227 4.0 5.18500544293 
2.01748284513 4.0 4.70190610587 
2.04543807983 4.0 4.20410207231 
2.12052071628 4.0 3.73806247361 
2.11476027271 4.0 3.15609632452 
3.62750389443 4.0 8.02205973388 
2.98681094132 4.0 8.09838145514 
4.18805816308 4.0 8.00053869174 
4.71925679016 4.0 7.99014777834 
5.23942462988 4.0 7.98448655158 
5.76150774675 4.0 7.9746608058 
6.3309214191 4.0 7.9498783427 
6.91399134168 4.0 8.11202099008 
7.43505634506 4.0 7.69289838343 
2.5335517494 4.0 2.25398735676 
3.0388464991 4.0 2.20215957596 
3.53285850424 4.0 2.18674415018 
7.00077532651 4.0 1.82916885397 
7.40225539611 4.0 2.26573179596 
1.50318898426 4.0 1.4519824119 
2.0051388749 4.0 1.41733408248 
2.51045491022 4.0 1.38341086399 
3.02347530329 4.0 1.36021275969 
3.52647338008 4.0 1.34267401114 
4.03468578515 4.0 1.34836534518 
4.53220816096 4.0 1.34634537231 
5.03126111957 4.0 1.35713003091 
5.52751699457 4.0 1.364022783 
6.0252283591 4.0 1.3762285604 
6.52494965614 4.0 1.39330248291 
7.02763175061 4.0 1.41580137882 
7.54181865586 4.0 1.45179432253 
8.03968399153 4.0 1.513290692 
8.53968398007 4.0 1.53484267705 
1.64004640727 4.0 8.42993141685 
2.17441795727 4.0 8.46876371462 
2.66497886892 4.0 8.55313216367 
2.99381712776 4.0 8.72202453847 
3.34214396956 4.0 8.54593987587 
3.80185727868 4.0 8.50384131429 
4.32142232695 4.0 8.48297631589 
4.8438389709 4.0 8.47812792984 
5.34899652813 4.0 8.47956819072 
5.86209198222 4.0 8.4700222649 
6.37055370333 4.0 8.480538234 
6.88453296842 4.0 8.51916882882 
7.43502619836 4.0 8.54569795316 
7.9577071572 4.0 8.52588543312 
8.46917485483 4.0 8.50468342042 
1.69992867011 4.0 7.88397749154 
1.41640124728 4.0 7.39559170101 
1.34990059697 4.0 6.89607961675 
1.39932198715 4.0 6.4289167561 
1.42056619372 4.0 5.98004549931 
1.4676587219 4.0 5.53529376074 
1.49862762839 4.0 5.07383551379 
1.52323328917 4.0 4.57820302322 
1.55698981068 4.0 4.05344044642 
1.6362912799 4.0 3.47537933482 
1.54903737512 4.0 2.91090342936 
1.51993582393 4.0 2.41278759304 
1.51061675304 4.0 1.933400087 
8.55377509293 4.0 2.03173144933 
8.61286708345 4.0 2.53303422671 
8.65160833275 4.0 3.05017974449 
8.6581831081 4.0 3.5525480394 
8.65661069762 4.0 4.05002513213 
8.64528712385 4.0 4.54797116906 
8.62871374918 4.0 5.04705567651 
8.61267011492 4.0 5.54343184409 
8.59373751417 4.0 6.03168757749 
8.56883715251 4.0 6.52216341493 
8.54719827984 4.0 7.0258994933 
8.49321669458 4.0 7.52032990472 
8.47348937951 4.0 8.01212171999 
2.02409241617 4.0 2.33362384117 
2.33614376529 4.0 7.99703296105 
7.96713489513 4.0 8.0404579009 
2.01437154981 4.0 1.87940654907 
8.02358769128 4.0 2.06711061474 
7.8066870679 4.0 4.06312621162 
4.51794211279 4.0 2.59697670924 
4.51794211279 0.0 2.59697670924 
7.8066870679 0.0 4.06312621162 
8.02358769128 0.0 2.06711061474 
2.01437154981 0.0 1.87940654907 
7.96713489513 0.0 8.0404579009 
2.33614376529 0.0 7.99703296105 
2.02409241617 0.0 2.33362384117 
8.47348937951 0.0 8.01212171999 
8.49321669458 0.0 7.52032990472 
8.54719827984 0.0 7.0258994933 
8.56883715251 0.0 6.52216341493 
8.59373751417 0.0 6.03168757749 
8.61267011492 0.0 5.54343184409 
8.62871374918 0.0 5.04705567651 
8.64528712385 0.0 4.54797116906 
8.65661069762 0.0 4.05002513213 
8.6581831081 0.0 3.5525480394 
8.65160833275 0.0 3.05017974449 
8.61286708345 0.0 2.53303422671 
8.55377509293 0.0 2.03173144933 
1.51061675304 0.0 1.933400087 
1.51993582393 0.0 2.41278759304 
1.54903737512 0.0 2.91090342936 
1.6362912799 0.0 3.47537933482 
1.55698981068 0.0 4.05344044642 
1.52323328917 0.0 4.57820302322 
1.49862762839 0.0 5.07383551379 
1.4676587219 0.0 5.53529376074 
1.42056619372 0.0 5.98004549931 
1.39932198715 0.0 6.4289167561 
1.34990059697 0.0 6.89607961675 
1.41640124728 0.0 7.39559170101 
1.69992867011 0.0 7.88397749154 
8.46917485483 0.0 8.50468342042 
7.9577071572 0.0 8.52588543312 
7.43502619836 0.0 8.54569795316 
6.88453296842 0.0 8.51916882882 
6.37055370333 0.0 8.480538234 
5.86209198222 0.0 8.4700222649 
5.34899652813 0.0 8.47956819072 
4.8438389709 0.0 8.47812792984 
4.32142232695 0.0 8.48297631589 
3.80185727868 0.0 8.50384131429 
3.34214396956 0.0 8.54593987587 
2.99381712776 0.0 8.72202453847 
2.66497886892 0.0 8.55313216367 
2.17441795727 0.0 8.46876371462 
1.64004640727 0.0 8.42993141685 
8.53968398007 0.0 1.53484267705 
8.03968399153 0.0 1.513290692 
7.54181865586 0.0 1.45179432253 
7.02763175061 0.0 1.41580137882 
6.52494965614 0.0 1.39330248291 
6.0252283591 0.0 1.3762285604 
5.52751699457 0.0 1.364022783 
5.03126111957 0.0 1.35713003091 
4.53220816096 0.0 1.34634537231 
4.03468578515 0.0 1.34836534518 
3.52647338008 0.0 1.34267401114 
3.02347530329 0.0 1.36021275969 
2.51045491022 0.0 1.38341086399 
2.0051388749 0.0 1.41733408248 
1.50318898426 0.0 1.4519824119 
7.40225539611 0.0 2.26573179596 
7.00077532651 0.0 1.82916885397 
3.53285850424 0.0 2.18674415018 
3.0388464991 0.0 2.20215957596 
2.5335517494 0.0 2.25398735676 
7.43505634506 0.0 7.69289838343 
6.91399134168 0.0 8.11202099008 
6.3309214191 0.0 7.9498783427 
5.76150774675 0.0 7.9746608058 
5.23942462988 0.0 7.98448655158 
4.71925679016 0.0 7.99014777834 
4.18805816308 0.0 8.00053869174 
2.98681094132 0.0 8.09838145514 
3.62750389443 0.0 8.02205973388 
2.11476027271 0.0 3.15609632452 
2.12052071628 0.0 3.73806247361 
2.04543807983 0.0 4.20410207231 
2.01748284513 0.0 4.70190610587 
2.00437514227 0.0 5.18500544293 
1.98417711083 0.0 5.65667848873 
1.92084955626 0.0 6.054399519 
1.8384531554 0.0 6.4002263314 
1.74872309363 0.0 6.87665921727 
2.03712676599 0.0 7.4240845364 
8.11959774124 0.0 6.97562421416 
8.154553371 0.0 6.48935101218 
7.80802357304 0.0 3.57412890321 
7.81507500403 0.0 3.11175026999 
7.80540847525 0.0 2.68150616134 
2.05095728082 0.0 2.77724084425 
2.4880017194 0.0 7.52341956913 
7.6395645714 0.0 7.20212298548 
7.39035541927 0.0 2.6682317975 
8.97987941259 0.0 8.49807657597 
8.98395754031 0.0 8.00750971049 
8.999630986 0.0 7.51604225797 
9.01765022138 0.0 7.02007139139 
9.03889949423 0.0 6.52469024597 
9.0478281122 0.0 6.0281164781 
9.06209271207 0.0 5.53029589984 
9.08162835601 0.0 5.03223858858 
9.0836002516 0.0 4.53236923564 
9.0860390603 0.0 4.03162208748 
9.08184771155 0.0 3.53150357324 
9.08217428528 0.0 3.02872174377 
9.06964650107 0.0 2.51844822287 
9.04365466521 0.0 2.01852387071 
9.02359742506 0.0 1.51281152144 
1.00546567054 0.0 1.48350171024 
1.00719075759 0.0 1.97585672996 
1.01666181032 0.0 2.46952032255 
1.03629054574 0.0 2.96621476913 
1.07113792044 0.0 3.4773498265 
1.05498264801 0.0 3.99013964377 
1.02198116584 0.0 4.505495097 
0.997790595354 0.0 5.00470185 
0.970924285277 0.0 5.48970219931 
0.945803945285 0.0 5.97691250746 
0.93061703568 0.0 6.461960261 
0.928189340573 0.0 6.96091582286 
0.998736549316 0.0 7.47241975519 
1.08274327508 0.0 7.96086323825 
1.09440933091 0.0 8.44868071818 
8.98133572854 0.0 8.98768860719 
8.47178904704 0.0 8.99499833766 
7.96156533131 0.0 9.00725900698 
7.44630052676 0.0 9.01174676536 
6.93332111285 0.0 9.00339211203 
6.42769927397 0.0 8.98969703593 
5.93010985532 0.0 8.98058143217 
5.42741091081 0.0 8.98113829502 
4.92894195543 0.0 8.98113910182 
4.42951676764 0.0 8.98646894975 
3.93180272256 0.0 9.00683292601 
3.46737552016 0.0 9.0566000074 
2.99946912365 0.0 9.08591913092 
2.5274626759 0.0 9.0496788817 
2.07245058186 0.0 8.98485902371 
1.57208548164 0.0 8.96304918955 
1.05541045348 0.0 8.96557501961 
9.00977401285 0.0 1.00961550763 
8.51664707798 0.0 1.01348015716 
8.02763365412 0.0 1.00015216436 
7.52777892253 0.0 0.975199894413 
7.02724762259 0.0 0.95497590822 
6.52427331192 0.0 0.942181343655 
6.02189041573 0.0 0.93300400192 
5.52111338117 0.0 0.927543305337 
5.02107466798 0.0 0.92060238169 
4.52137582658 0.0 0.907947540342 
4.02117426124 0.0 0.909889388155 
3.51874564932 0.0 0.907514775542 
3.01228578246 0.0 0.917073715316 
2.5076857151 0.0 0.936801236089 
2.0019734361 0.0 0.952534814388 
1.50134599475 0.0 0.973423496814 
1.00124082398 0.0 0.989509104327 
6.9669467469 0.0 2.23599333546 
6.02788739851 0.0 2.21983704978 
4.53110191226 0.0 2.18965418362 
2.58574146794 0.0 2.65376638989 
7.35436467203 0.0 7.29639431712 
6.97076680749 0.0 7.7180545898 
6.59603224661 0.0 7.66532577289 
3.0051896197 0.0 7.56937062409 
2.14016283079 0.0 6.55561853771 
2.14636551536 0.0 6.95037771282 
7.71938567358 0.0 6.88114791303 
7.73848092427 0.0 6.00977098879 
7.39605958774 0.0 3.05279765942 
2.60312183389 0.0 3.04993119656 
2.52881738767 0.0 6.99947251363 
7.34111706602 0.0 6.93383747923 
6.99350093411 0.0 2.64267832893 
9.4888026213 0.0 8.99007797489 
9.48954707716 0.0 8.49660190625 
9.49151086127 0.0 8.00197556034 
9.49888049129 0.0 7.50770342763 
9.50356071498 0.0 7.01076593899 
9.50687575386 0.0 6.51465135861 
9.51569014864 0.0 6.01496878123 
9.52667524311 0.0 5.51601947169 
9.53499184322 0.0 5.01641239396 
9.53822862968 0.0 4.51477376976 
9.52926328341 0.0 4.01153983342 
9.53567576153 0.0 3.51129669346 
9.53832354331 0.0 3.01298817041 
9.53540839099 0.0 2.50895577799 
9.52445050143 0.0 2.00500804865 
9.51039235175 0.0 1.50432126743 
9.50289083304 0.0 1.00337465644 
0.50136956058 0.0 0.499629741858 
0.501613310461 0.0 0.999733303457 
0.504193114595 0.0 1.4989045882 
0.501909975451 0.0 1.99653260202 
0.504301325386 0.0 2.49416632101 
0.513802562373 0.0 2.98880788284 
0.527047216181 0.0 3.48105419497 
0.526811442587 0.0 3.97849915114 
0.513557159983 0.0 4.48236871322 
0.501248242557 0.0 4.98511852882 
0.485290958355 0.0 5.48761336992 
0.4725043587 0.0 5.985072171 
0.466872882451 0.0 6.48726415375 
0.476201838394 0.0 6.99237700991 
0.502867614708 0.0 7.49357251545 
0.534790605608 0.0 7.98387354628 
0.540705485306 0.0 8.47528350075 
0.536917235384 0.0 8.9709061066 
9.49066049577 0.0 9.48768780873 
8.48980411483 0.0 9.48880350874 
7.98457714605 0.0 9.49733154729 
7.47557008962 0.0 9.50235502066 
6.97255567661 0.0 9.4989534023 
6.47248132444 0.0 9.49338409983 
5.97291831485 0.0 9.49014976231 
5.47292240611 0.0 9.48961021372 
4.97440325193 0.0 9.49083196854 
4.47470657796 0.0 9.49503496646 
3.98360099726 0.0 9.50866735407 
3.49445322315 0.0 9.52922059145 
3.0013620086 0.0 9.53515692102 
2.5064879849 0.0 9.52312524799 
2.01492769242 0.0 9.49979369175 
1.51973475889 0.0 9.48517632128 
1.02227204849 0.0 9.4809203521 
0.512183549297 0.0 9.48507336737 
9.50020393179 0.0 0.502930214963 
9.00096477628 0.0 0.504254629904 
8.50345311851 0.0 0.503747733647 
8.01141242369 0.0 0.497838869679 
7.51580562356 0.0 0.488183849963 
7.01292049101 0.0 0.480628920068 
6.51341035579 0.0 0.474521581291 
6.01297963992 0.0 0.475022528313 
5.51329903603 0.0 0.46709510435 
5.01390685469 0.0 0.471632627543 
4.51070258109 0.0 0.464695813863 
4.01033126869 0.0 0.457570769051 
3.50729185331 0.0 0.459883152673 
3.00607481316 0.0 0.470924349999 
2.5020973052 0.0 0.470438473591 
2.00100806808 0.0 0.483372584463 
1.50032309458 0.0 0.488992088027 
1.00375609411 0.0 0.500953907768 
6.50837820785 0.0 2.63887710116 
3.52425062808 0.0 2.59596847263 
3.0210126868 0.0 2.61412191126 
6.98887828831 0.0 7.33951814765 
6.51448861801 0.0 7.36388594662 
6.07223470109 0.0 7.44666980013 
5.61967290399 0.0 7.487489668 
5.11708064033 0.0 7.49453692571 
4.60992057866 0.0 7.49945476457 
4.07964066472 0.0 7.50771179724 
3.54491405784 0.0 7.53802241438 
2.5841021495 0.0 3.45288830251 
2.57482727085 0.0 3.92164137808 
2.52901690423 0.0 4.37507147986 
2.51273473686 0.0 4.85047427174 
2.50608171104 0.0 5.34174189264 
2.49231593136 0.0 5.83934135185 
2.46093996739 0.0 6.3590890539 
7.31283043428 0.0 6.48961569567 
7.40090813909 0.0 3.53877687378 
8.98847629729 0.0 9.4847415655 
1.72874139338 0.0 7.23529699016 
2.51696083907 0.0 1.82395022018 
3.02430030582 0.0 1.78586050391 
3.53228008175 0.0 1.76854055593 
7.49486288046 0.0 1.86651911802 
8.20506964632 0.0 2.59444190327 
8.23299949861 0.0 3.08605029348 
8.23138232808 0.0 3.57457960578 
7.45369234917 0.0 8.09424536387 
7.74055171878 0.0 2.3434219901 
2.26683224381 0.0 3.42000222032 
7.96374905885 0.0 7.51343040083 
7.40183633028 0.0 4.03822597026 
7.39859891198 0.0 4.52801976075 
7.39147853252 0.0 5.02385766874 
7.36711787986 0.0 5.51969662018 
7.3233616847 0.0 6.00210189765 
4.02146321071 0.0 2.59405350605 
5.03124673517 0.0 2.1959269044 
5.01919351614 0.0 2.60127251883 
5.51520709271 0.0 2.60447919152 
6.01239611117 0.0 2.61862344568 
8.22680454215 0.0 4.06382309856 
8.20537618578 0.0 5.05418539026 
7.73513100604 0.0 6.46070850205 
4.04039326718 0.0 1.7685171351 
6.50675577414 0.0 2.23197693842 
8.22135535278 0.0 4.55474965035 
8.18918890117 0.0 5.535981222 
8.17173729583 0.0 6.01402815139 
4.5371602585 0.0 1.77097905466 
5.03321871857 0.0 1.77712629758 
5.52983844013 0.0 1.78563607292 
6.02160725886 0.0 1.79689710633 
6.51186792888 0.0 1.81132108293 
7.80836414133 0.0 4.54876744704 
7.7942689275 0.0 5.04457348932 
7.76420307974 0.0 5.54189267719 
4.02991177872 0.0 2.1816224717 
5.52549155669 0.0 2.19709461978 
10.0 0.0 0.5 
10.0 0.0 1.0 
10.0 0.0 1.5 
10.0 0.0 2.0 
10.0 0.0 2.5 
10.0 0.0 3.0 
10.0 0.0 3.5 
10.0 0.0 4.0 
10.0 0.0 4.5 
10.0 0.0 5.0 
10.0 0.0 5.5 
10.0 0.0 6.0 
10.0 0.0 6.5 
10.0 0.0 7.0 
10.0 0.0 7.5 
10.0 0.0 8.0 
10.0 0.0 8.5 
10.0 0.0 9.0 
10.0 0.0 9.5 
0.0 0.0 9.5 
0.0 0.0 9.0 
0.0 0.0 8.5 
0.0 0.0 8.0 
0.0 0.0 7.5 
0.0 0.0 7.0 
0.0 0.0 6.5 
0.0 0.0 6.0 
0.0 0.0 5.5 
0.0 0.0 5.0 
0.0 0.0 4.5 
0.0 0.0 4.0 
0.0 0.0 3.5 
0.0 0.0 3.0 
0.0 0.0 2.5 
0.0 0.0 2.0 
0.0 0.0 1.5 
0.0 0.0 1.0 
0.0 0.0 0.5 
10.0 0.0 10.0 
0.5 0.0 10.0 
1.0 0.0 10.0 
1.5 0.0 10.0 
2.0 0.0 10.0 
2.5 0.0 10.0 
3.0 0.0 10.0 
3.5 0.0 10.0 
4.0 0.0 10.0 
4.5 0.0 10.0 
5.0 0.0 10.0 
5.5 0.0 10.0 
6.0 0.0 10.0 
6.5 0.0 10.0 
7.0 0.0 10.0 
7.5 0.0 10.0 
8.0 0.0 10.0 
8.5 0.0 10.0 
9.0 0.0 10.0 
9.5 0.0 10.0 
0.0 0.0 10.0 
10.0 0.0 0.0 
0.5 0.0 0.0 
1.0 0.0 0.0 
1.5 0.0 0.0 
2.0 0.0 0.0 
2.5 0.0 0.0 
3.0 0.0 0.0 
3.5 0.0 0.0 
4.0 0.0 0.0 
4.5 0.0 0.0 
5.0 0.0 0.0 
5.5 0.0 0.0 
6.0 0.0 0.0 
6.5 0.0 0.0 
7.0 0.0 0.0 
7.5 0.0 0.0 
8.0 0.0 0.0 
8.5 0.0 0.0 
9.0 0.0 0.0 
9.5 0.0 0.0 
0.0 0.0 0.0 
3.5 0.0 3.0 
4.0 0.0 3.0 
4.5 0.0 3.0 
5.0 0.0 3.0 
5.5 0.0 3.0 
6.0 0.0 3.0 
6.5 0.0 3.0 
3.5 0.0 7.0 
4.0 0.0 7.0 
4.5 0.0 7.0 
5.0 0.0 7.0 
5.5 0.0 7.0 
6.0 0.0 7.0 
6.5 0.0 7.0 
3.0 0.0 3.0 
3.0 0.0 6.5 
3.0 0.0 6.0 
3.0 0.0 5.5 
3.0 0.0 5.0 
3.0 0.0 4.5 
3.0 0.0 4.0 
3.0 0.0 3.5 
3.0 0.0 7.0 
7.0 0.0 7.0 
7.0 0.0 3.5 
7.0 0.0 4.0 
7.0 0.0 4.5 
7.0 0.0 5.0 
7.0 0.0 5.5 
7.0 0.0 6.0 
7.0 0.0 6.5 
7.0 0.0 3.0 
7.0 3.5 6.5 
7.0 3.5 6.0 
7.0 3.5 5.5 
7.0 3.5 5.0 
7.0 3.5 4.5 
7.0 3.5 4.0 
7.0 3.5 3.5 
7.0 3.0 6.5 
7.0 3.0 6.0 
7.0 3.0 5.5 
7.0 3.0 5.0 
7.0 3.0 4.5 
7.0 3.0 4.0 
7.0 3.0 3.5 
7.0 2.5 6.5 
7.0 2.5 6.0 
7.0 2.5 5.5 
7.0 2.5 5.0 
7.0 2.5 4.5 
7.0 2.5 4.0 
7.0 2.5 3.5 
7.0 2.0 6.5 
7.0 2.0 6.0 
7.0 2.0 5.5 
7.0 2.0 5.0 
7.0 2.0 4.5 
7.0 2.0 4.0 
7.0 2.0 3.5 
7.0 1.5 6.5 
7.0 1.5 6.0 
7.0 1.5 5.5 
7.0 1.5 5.0 
7.0 1.5 4.5 
7.0 1.5 4.0 
7.0 1.5 3.5 
7.0 1.0 6.5 
7.0 1.0 6.0 
7.0 1.0 5.5 
7.0 1.0 5.0 
7.0 1.0 4.5 
7.0 1.0 4.0 
7.0 1.0 3.5 
7.0 0.5 6.5 
7.0 0.5 6.0 
7.0 0.5 5.5 
7.0 0.5 5.0 
7.0 0.5 4.5 
7.0 0.5 4.0 
7.0 0.5 3.5 
7.0 4.0 3.5 
7.0 4.0 4.0 
7.0 4.0 4.5 
7.0 4.0 5.0 
7.0 4.0 5.5 
7.0 4.0 6.0 
7.0 4.0 6.5 
7.0 4.0 3.0 
7.0 0.5 3.0 
7.0 1.0 3.0 
7.0 1.5 3.0 
7.0 2.0 3.0 
7.0 2.5 3.0 
7.0 3.0 3.0 
7.0 3.5 3.0 
7.0 4.0 7.0 
7.0 0.5 7.0 
7.0 1.0 7.0 
7.0 1.5 7.0 
7.0 2.0 7.0 
7.0 2.5 7.0 
7.0 3.0 7.0 
7.0 3.5 7.0 
3.0 0.5 6.5 
3.0 0.5 6.0 
3.0 0.5 5.5 
3.0 0.5 5.0 
3.0 0.5 4.5 
3.0 0.5 4.0 
3.0 0.5 3.5 
3.0 1.0 6.5 
3.0 1.0 6.0 
3.0 1.0 5.5 
3.0 1.0 5.0 
3.0 1.0 4.5 
3.0 1.0 4.0 
3.0 1.0 3.5 
3.0 1.5 6.5 
3.0 1.5 6.0 
3.0 1.5 5.5 
3.0 1.5 5.0 
3.0 1.5 4.5 
3.0 1.5 4.0 
3.0 1.5 3.5 
3.0 2.0 6.5 
3.0 2.0 6.0 
3.0 2.0 5.5 
3.0 2.0 5.0 
3.0 2.0 4.5 
3.0 2.0 4.0 
3.0 2.0 3.5 
3.0 2.5 6.5 
3.0 2.5 6.0 
3.0 2.5 5.5 
3.0 2.5 5.0 
3.0 2.5 4.5 
3.0 2.5 4.0 
3.0 2.5 3.5 
3.0 3.0 6.5 
3.0 3.0 6.0 
3.0 3.0 5.5 
3.0 3.0 5.0 
3.0 3.0 4.5 
3.0 3.0 4.0 
3.0 3.0 3.5 
3.0 3.5 6.5 
3.0 3.5 6.0 
3.0 3.5 5.5 
3.0 3.5 5.0 
3.0 3.5 4.5 
3.0 3.5 4.0 
3.0 3.5 3.5 
3.0 4.0 6.5 
3.0 4.0 6.0 
3.0 4.0 5.5 
3.0 4.0 5.0 
3.0 4.0 4.5 
3.0 4.0 4.0 
3.0 4.0 3.5 
3.0 3.5 3.0 
3.0 3.0 3.0 
3.0 2.5 3.0 
3.0 2.0 3.0 
3.0 1.5 3.0 
3.0 1.0 3.0 
3.0 0.5 3.0 
3.0 4.0 3.0 
3.0 3.5 7.0 
3.0 3.0 7.0 
3.0 2.5 7.0 
3.0 2.0 7.0 
3.0 1.5 7.0 
3.0 1.0 7.0 
3.0 0.5 7.0 
3.0 4.0 7.0 
6.5 3.5 7.0 
6.5 3.0 7.0 
6.5 2.5 7.0 
6.5 2.0 7.0 
6.5 1.5 7.0 
6.5 1.0 7.0 
6.5 0.5 7.0 
6.0 3.5 7.0 
6.0 3.0 7.0 
6.0 2.5 7.0 
6.0 2.0 7.0 
6.0 1.5 7.0 
6.0 1.0 7.0 
6.0 0.5 7.0 
5.5 3.5 7.0 
5.5 3.0 7.0 
5.5 2.5 7.0 
5.5 2.0 7.0 
5.5 1.5 7.0 
5.5 1.0 7.0 
5.5 0.5 7.0 
5.0 3.5 7.0 
5.0 3.0 7.0 
5.0 2.5 7.0 
5.0 2.0 7.0 
5.0 1.5 7.0 
5.0 1.0 7.0 
5.0 0.5 7.0 
4.5 3.5 7.0 
4.5 3.0 7.0 
4.5 2.5 7.0 
4.5 2.0 7.0 
4.5 1.5 7.0 
4.5 1.0 7.0 
4.5 0.5 7.0 
4.0 3.5 7.0 
4.0 3.0 7.0 
4.0 2.5 7.0 
4.0 2.0 7.0 
4.0 1.5 7.0 
4.0 1.0 7.0 
4.0 0.5 7.0 
3.5 3.5 7.0 
3.5 3.0 7.0 
3.5 2.5 7.0 
3.5 2.0 7.0 
3.5 1.5 7.0 
3.5 1.0 7.0 
3.5 0.5 7.0 
6.5 4.0 7.0 
6.0 4.0 7.0 
5.5 4.0 7.0 
5.0 4.0 7.0 
4.5 4.0 7.0 
4.0 4.0 7.0 
3.5 4.0 7.0 
6.5 3.5 3.0 
6.0 3.5 3.0 
5.5 3.5 3.0 
5.0 3.5 3.0 
4.5 3.5 3.0 
4.0 3.5 3.0 
3.5 3.5 3.0 
6.5 3.0 3.0 
6.0 3.0 3.0 
5.5 3.0 3.0 
5.0 3.0 3.0 
4.5 3.0 3.0 
4.0 3.0 3.0 
3.5 3.0 3.0 
6.5 2.5 3.0 
6.0 2.5 3.0 
5.5 2.5 3.0 
5.0 2.5 3.0 
4.5 2.5 3.0 
4.0 2.5 3.0 
3.5 2.5 3.0 
6.5 2.0 3.0 
6.0 2.0 3.0 
5.5 2.0 3.0 
5.0 2.0 3.0 
4.5 2.0 3.0 
4.0 2.0 3.0 
3.5 2.0 3.0 
6.5 1.5 3.0 
6.0 1.5 3.0 
5.5 1.5 3.0 
5.0 1.5 3.0 
4.5 1.5 3.0 
4.0 1.5 3.0 
3.5 1.5 3.0 
6.5 1.0 3.0 
6.0 1.0 3.0 
5.5 1.0 3.0 
5.0 1.0 3.0 
4.5 1.0 3.0 
4.0 1.0 3.0 
3.5 1.0 3.0 
6.5 0.5 3.0 
6.0 0.5 3.0 
5.5 0.5 3.0 
5.0 0.5 3.0 
4.5 0.5 3.0 
4.0 0.5 3.0 
3.5 0.5 3.0 
6.5 4.0 3.0 
6.0 4.0 3.0 
5.5 4.0 3.0 
5.0 4.0 3.0 
4.5 4.0 3.0 
4.0 4.0 3.0 
3.5 4.0 3.0 
9.5 3.5 0.0 
9.0 3.5 0.0 
8.5 3.5 0.0 
8.0 3.5 0.0 
7.5 3.5 0.0 
7.0 3.5 0.0 
6.5 3.5 0.0 
6.0 3.5 0.0 
5.5 3.5 0.0 
5.0 3.5 0.0 
4.5 3.5 0.0 
4.0 3.5 0.0 
3.5 3.5 0.0 
3.0 3.5 0.0 
2.5 3.5 0.0 
2.0 3.5 0.0 
1.5 3.5 0.0 
1.0 3.5 0.0 
0.5 3.5 0.0 
9.5 3.0 0.0 
9.0 3.0 0.0 
8.5 3.0 0.0 
8.0 3.0 0.0 
7.5 3.0 0.0 
7.0 3.0 0.0 
6.5 3.0 0.0 
6.0 3.0 0.0 
5.5 3.0 0.0 
5.0 3.0 0.0 
4.5 3.0 0.0 
4.0 3.0 0.0 
3.5 3.0 0.0 
3.0 3.0 0.0 
2.5 3.0 0.0 
2.0 3.0 0.0 
1.5 3.0 0.0 
1.0 3.0 0.0 
0.5 3.0 0.0 
9.5 2.5 0.0 
9.0 2.5 0.0 
8.5 2.5 0.0 
8.0 2.5 0.0 
7.5 2.5 0.0 
7.0 2.5 0.0 
6.5 2.5 0.0 
6.0 2.5 0.0 
5.5 2.5 0.0 
5.0 2.5 0.0 
4.5 2.5 0.0 
4.0 2.5 0.0 
3.5 2.5 0.0 
3.0 2.5 0.0 
2.5 2.5 0.0 
2.0 2.5 0.0 
1.5 2.5 0.0 
1.0 2.5 0.0 
0.5 2.5 0.0 
9.5 2.0 0.0 
9.0 2.0 0.0 
8.5 2.0 0.0 
8.0 2.0 0.0 
7.5 2.0 0.0 
7.0 2.0 0.0 
6.5 2.0 0.0 
6.0 2.0 0.0 
5.5 2.0 0.0 
5.0 2.0 0.0 
4.5 2.0 0.0 
4.0 2.0 0.0 
3.5 2.0 0.0 
3.0 2.0 0.0 
2.5 2.0 0.0 
2.0 2.0 0.0 
1.5 2.0 0.0 
1.0 2.0 0.0 
0.5 2.0 0.0 
9.5 1.5 0.0 
9.0 1.5 0.0 
8.5 1.5 0.0 
8.0 1.5 0.0 
7.5 1.5 0.0 
7.0 1.5 0.0 
6.5 1.5 0.0 
6.0 1.5 0.0 
5.5 1.5 0.0 
5.0 1.5 0.0 
4.5 1.5 0.0 
4.0 1.5 0.0 
3.5 1.5 0.0 
3.0 1.5 0.0 
2.5 1.5 0.0 
2.0 1.5 0.0 
1.5 1.5 0.0 
1.0 1.5 0.0 
0.5 1.5 0.0 
9.5 1.0 0.0 
9.0 1.0 0.0 
8.5 1.0 0.0 
8.0 1.0 0.0 
7.5 1.0 0.0 
7.0 1.0 0.0 
6.5 1.0 0.0 
6.0 1.0 0.0 
5.5 1.0 0.0 
5.0 1.0 0.0 
4.5 1.0 0.0 
4.0 1.0 0.0 
3.5 1.0 0.0 
3.0 1.0 0.0 
2.5 1.0 0.0 
2.0 1.0 0.0 
1.5 1.0 0.0 
1.0 1.0 0.0 
0.5 1.0 0.0 
9.5 0.5 0.0 
9.0 0.5 0.0 
8.5 0.5 0.0 
8.0 0.5 0.0 
7.5 0.5 0.0 
7.0 0.5 0.0 
6.5 0.5 0.0 
6.0 0.5 0.0 
5.5 0.5 0.0 
5.0 0.5 0.0 
4.5 0.5 0.0 
4.0 0.5 0.0 
3.5 0.5 0.0 
3.0 0.5 0.0 
2.5 0.5 0.0 
2.0 0.5 0.0 
1.5 0.5 0.0 
1.0 0.5 0.0 
0.5 0.5 0.0 
9.5 4.0 0.0 
9.0 4.0 0.0 
8.5 4.0 0.0 
8.0 4.0 0.0 
7.5 4.0 0.0 
7.0 4.0 0.0 
6.5 4.0 0.0 
6.0 4.0 0.0 
5.5 4.0 0.0 
5.0 4.0 0.0 
4.5 4.0 0.0 
4.0 4.0 0.0 
3.5 4.0 0.0 
3.0 4.0 0.0 
2.5 4.0 0.0 
2.0 4.0 0.0 
1.5 4.0 0.0 
1.0 4.0 0.0 
0.5 4.0 0.0 
10.0 4.0 0.0 
10.0 0.5 0.0 
10.0 1.0 0.0 
10.0 1.5 0.0 
10.0 2.0 0.0 
10.0 2.5 0.0 
10.0 3.0 0.0 
10.0 3.5 0.0 
0.0 3.5 0.0 
0.0 3.0 0.0 
0.0 2.5 0.0 
0.0 2.0 0.0 
0.0 1.5 0.0 
0.0 1.0 0.0 
0.0 0.5 0.0 
0.0 4.0 0.0 
9.5 3.5 10.0 
9.5 3.0 10.0 
9.5 2.5 10.0 
9.5 2.0 10.0 
9.5 1.5 10.0 
9.5 1.0 10.0 
9.5 0.5 10.0 
9.0 3.5 10.0 
9.0 3.0 10.0 
9.0 2.5 10.0 
9.0 2.0 10.0 
9.0 1.5 10.0 
9.0 1.0 10.0 
9.0 0.5 10.0 
8.5 3.5 10.0 
8.5 3.0 10.0 
8.5 2.5 10.0 
8.5 2.0 10.0 
8.5 1.5 10.0 
8.5 1.0 10.0 
8.5 0.5 10.0 
8.0 3.5 10.0 
8.0 3.0 10.0 
8.0 2.5 10.0 
8.0 2.0 10.0 
8.0 1.5 10.0 
8.0 1.0 10.0 
8.0 0.5 10.0 
7.5 3.5 10.0 
7.5 3.0 10.0 
7.5 2.5 10.0 
7.5 2.0 10.0 
7.5 1.5 10.0 
7.5 1.0 10.0 
7.5 0.5 10.0 
7.0 3.5 10.0 
7.0 3.0 10.0 
7.0 2.5 10.0 
7.0 2.0 10.0 
7.0 1.5 10.0 
7.0 1.0 10.0 
7.0 0.5 10.0 
6.5 3.5 10.0 
6.5 3.0 10.0 
6.5 2.5 10.0 
6.5 2.0 10.0 
6.5 1.5 10.0 
6.5 1.0 10.0 
6.5 0.5 10.0 
6.0 3.5 10.0 
6.0 3.0 10.0 
6.0 2.5 10.0 
6.0 2.0 10.0 
6.0 1.5 10.0 
6.0 1.0 10.0 
6.0 0.5 10.0 
5.5 3.5 10.0 
5.5 3.0 10.0 
5.5 2.5 10.0 
5.5 2.0 10.0 
5.5 1.5 10.0 
5.5 1.0 10.0 
5.5 0.5 10.0 
5.0 3.5 10.0 
5.0 3.0 10.0 
5.0 2.5 10.0 
5.0 2.0 10.0 
5.0 1.5 10.0 
5.0 1.0 10.0 
5.0 0.5 10.0 
4.5 3.5 10.0 
4.5 3.0 10.0 
4.5 2.5 10.0 
4.5 2.0 10.0 
4.5 1.5 10.0 
4.5 1.0 10.0 
4.5 0.5 10.0 
4.0 3.5 10.0 
4.0 3.0 10.0 
4.0 2.5 10.0 
4.0 2.0 10.0 
4.0 1.5 10.0 
4.0 1.0 10.0 
4.0 0.5 10.0 
3.5 3.5 10.0 
3.5 3.0 10.0 
3.5 2.5 10.0 
3.5 2.0 10.0 
3.5 1.5 10.0 
3.5 1.0 10.0 
3.5 0.5 10.0 
3.0 3.5 10.0 
3.0 3.0 10.0 
3.0 2.5 10.0 
3.0 2.0 10.0 
3.0 1.5 10.0 
3.0 1.0 10.0 
3.0 0.5 10.0 
2.5 3.5 10.0 
2.5 3.0 10.0 
2.5 2.5 10.0 
2.5 2.0 10.0 
2.5 1.5 10.0 
2.5 1.0 10.0 
2.5 0.5 10.0 
2.0 3.5 10.0 
2.0 3.0 10.0 
2.0 2.5 10.0 
2.0 2.0 10.0 
2.0 1.5 10.0 
2.0 1.0 10.0 
2.0 0.5 10.0 
1.5 3.5 10.0 
1.5 3.0 10.0 
1.5 2.5 10.0 
1.5 2.0 10.0 
1.5 1.5 10.0 
1.5 1.0 10.0 
1.5 0.5 10.0 
1.0 3.5 10.0 
1.0 3.0 10.0 
1.0 2.5 10.0 
1.0 2.0 10.0 
1.0 1.5 10.0 
1.0 1.0 10.0 
1.0 0.5 10.0 
0.5 3.5 10.0 
0.5 3.0 10.0 
0.5 2.5 10.0 
0.5 2.0 10.0 
0.5 1.5 10.0 
0.5 1.0 10.0 
0.5 0.5 10.0 
9.5 4.0 10.0 
9.0 4.0 10.0 
8.5 4.0 10.0 
8.0 4.0 10.0 
7.5 4.0 10.0 
7.0 4.0 10.0 
6.5 4.0 10.0 
6.0 4.0 10.0 
5.5 4.0 10.0 
5.0 4.0 10.0 
4.5 4.0 10.0 
4.0 4.0 10.0 
3.5 4.0 10.0 
3.0 4.0 10.0 
2.5 4.0 10.0 
2.0 4.0 10.0 
1.5 4.0 10.0 
1.0 4.0 10.0 
0.5 4.0 10.0 
10.0 4.0 10.0 
10.0 0.5 10.0 
10.0 1.0 10.0 
10.0 1.5 10.0 
10.0 2.0 10.0 
10.0 2.5 10.0 
10.0 3.0 10.0 
10.0 3.5 10.0 
0.0 3.5 10.0 
0.0 3.0 10.0 
0.0 2.5 10.0 
0.0 2.0 10.0 
0.0 1.5 10.0 
0.0 1.0 10.0 
0.0 0.5 10.0 
0.0 4.0 10.0 
0.0 0.5 0.5 
0.0 1.0 0.5 
0.0 1.5 0.5 
0.0 2.0 0.5 
0.0 2.5 0.5 
0.0 3.0 0.5 
0.0 3.5 0.5 
0.0 0.5 1.0 
0.0 1.0 1.0 
0.0 1.5 1.0 
0.0 2.0 1.0 
0.0 2.5 1.0 
0.0 3.0 1.0 
0.0 3.5 1.0 
0.0 0.5 1.5 
0.0 1.0 1.5 
0.0 1.5 1.5 
0.0 2.0 1.5 
0.0 2.5 1.5 
0.0 3.0 1.5 
0.0 3.5 1.5 
0.0 0.5 2.0 
0.0 1.0 2.0 
0.0 1.5 2.0 
0.0 2.0 2.0 
0.0 2.5 2.0 
0.0 3.0 2.0 
0.0 3.5 2.0 
0.0 0.5 2.5 
0.0 1.0 2.5 
0.0 1.5 2.5 
0.0 2.0 2.5 
0.0 2.5 2.5 
0.0 3.0 2.5 
0.0 3.5 2.5 
0.0 0.5 3.0 
0.0 1.0 3.0 
0.0 1.5 3.0 
0.0 2.0 3.0 
0.0 2.5 3.0 
0.0 3.0 3.0 
0.0 3.5 3.0 
0.0 0.5 3.5 
0.0 1.0 3.5 
0.0 1.5 3.5 
0.0 2.0 3.5 
0.0 2.5 3.5 
0.0 3.0 3.5 
0.0 3.5 3.5 
0.0 0.5 4.0 
0.0 1.0 4.0 
0.0 1.5 4.0 
0.0 2.0 4.0 
0.0 2.5 4.0 
0.0 3.0 4.0 
0.0 3.5 4.0 
0.0 0.5 4.5 
0.0 1.0 4.5 
0.0 1.5 4.5 
0.0 2.0 4.5 
0.0 2.5 4.5 
0.0 3.0 4.5 
0.0 3.5 4.5 
0.0 0.5 5.0 
0.0 1.0 5.0 
0.0 1.5 5.0 
0.0 2.0 5.0 
0.0 2.5 5.0 
0.0 3.0 5.0 
0.0 3.5 5.0 
0.0 0.5 5.5 
0.0 1.0 5.5 
0.0 1.5 5.5 
0.0 2.0 5.5 
0.0 2.5 5.5 
0.0 3.0 5.5 
0.0 3.5 5.5 
0.0 0.5 6.0 
0.0 1.0 6.0 
0.0 1.5 6.0 
0.0 2.0 6.0 
0.0 2.5 6.0 
0.0 3.0 6.0 
0.0 3.5 6.0 
0.0 0.5 6.5 
0.0 1.0 6.5 
0.0 1.5 6.5 
0.0 2.0 6.5 
0.0 2.5 6.5 
0.0 3.0 6.5 
0.0 3.5 6.5 
0.0 0.5 7.0 
0.0 1.0 7.0 
0.0 1.5 7.0 
0.0 2.0 7.0 
0.0 2.5 7.0 
0.0 3.0 7.0 
0.0 3.5 7.0 
0.0 0.5 7.5 
0.0 1.0 7.5 
0.0 1.5 7.5 
0.0 2.0 7.5 
0.0 2.5 7.5 
0.0 3.0 7.5 
0.0 3.5 7.5 
0.0 0.5 8.0 
0.0 1.0 8.0 
0.0 1.5 8.0 
0.0 2.0 8.0 
0.0 2.5 8.0 
0.0 3.0 8.0 
0.0 3.5 8.0 
0.0 0.5 8.5 
0.0 1.0 8.5 
0.0 1.5 8.5 
0.0 2.0 8.5 
0.0 2.5 8.5 
0.0 3.0 8.5 
0.0 3.5 8.5 
0.0 0.5 9.0 
0.0 1.0 9.0 
0.0 1.5 9.0 
0.0 2.0 9.0 
0.0 2.5 9.0 
0.0 3.0 9.0 
0.0 3.5 9.0 
0.0 0.5 9.5 
0.0 1.0 9.5 
0.0 1.5 9.5 
0.0 2.0 9.5 
0.0 2.5 9.5 
0.0 3.0 9.5 
0.0 3.5 9.5 
0.0 4.0 9.5 
0.0 4.0 9.0 
0.0 4.0 8.5 
0.0 4.0 8.0 
0.0 4.0 7.5 
0.0 4.0 7.0 
0.0 4.0 6.5 
0.0 4.0 6.0 
0.0 4.0 5.5 
0.0 4.0 5.0 
0.0 4.0 4.5 
0.0 4.0 4.0 
0.0 4.0 3.5 
0.0 4.0 3.0 
0.0 4.0 2.5 
0.0 4.0 2.0 
0.0 4.0 1.5 
0.0 4.0 1.0 
0.0 4.0 0.5 
10.0 3.5 9.5 
10.0 3.5 9.0 
10.0 3.5 8.5 
10.0 3.5 8.0 
10.0 3.5 7.5 
10.0 3.5 7.0 
10.0 3.5 6.5 
10.0 3.5 6.0 
10.0 3.5 5.5 
10.0 3.5 5.0 
10.0 3.5 4.5 
10.0 3.5 4.0 
10.0 3.5 3.5 
10.0 3.5 3.0 
10.0 3.5 2.5 
10.0 3.5 2.0 
10.0 3.5 1.5 
10.0 3.5 1.0 
10.0 3.5 0.5 
10.0 3.0 9.5 
10.0 3.0 9.0 
10.0 3.0 8.5 
10.0 3.0 8.0 
10.0 3.0 7.5 
10.0 3.0 7.0 
10.0 3.0 6.5 
10.0 3.0 6.0 
10.0 3.0 5.5 
10.0 3.0 5.0 
10.0 3.0 4.5 
10.0 3.0 4.0 
10.0 3.0 3.5 
10.0 3.0 3.0 
10.0 3.0 2.5 
10.0 3.0 2.0 
10.0 3.0 1.5 
10.0 3.0 1.0 
10.0 3.0 0.5 
10.0 2.5 9.5 
10.0 2.5 9.0 
10.0 2.5 8.5 
10.0 2.5 8.0 
10.0 2.5 7.5 
10.0 2.5 7.0 
10.0 2.5 6.5 
10.0 2.5 6.0 
10.0 2.5 5.5 
10.0 2.5 5.0 
10.0 2.5 4.5 
10.0 2.5 4.0 
10.0 2.5 3.5 
10.0 2.5 3.0 
10.0 2.5 2.5 
10.0 2.5 2.0 
10.0 2.5 1.5 
10.0 2.5 1.0 
10.0 2.5 0.5 
10.0 2.0 9.5 
10.0 2.0 9.0 
10.0 2.0 8.5 
10.0 2.0 8.0 
10.0 2.0 7.5 
10.0 2.0 7.0 
10.0 2.0 6.5 
10.0 2.0 6.0 
10.0 2.0 5.5 
10.0 2.0 5.0 
10.0 2.0 4.5 
10.0 2.0 4.0 
10.0 2.0 3.5 
10.0 2.0 3.0 
10.0 2.0 2.5 
10.0 2.0 2.0 
10.0 2.0 1.5 
10.0 2.0 1.0 
10.0 2.0 0.5 
10.0 1.5 9.5 
10.0 1.5 9.0 
10.0 1.5 8.5 
10.0 1.5 8.0 
10.0 1.5 7.5 
10.0 1.5 7.0 
10.0 1.5 6.5 
10.0 1.5 6.0 
10.0 1.5 5.5 
10.0 1.5 5.0 
10.0 1.5 4.5 
10.0 1.5 4.0 
10.0 1.5 3.5 
10.0 1.5 3.0 
10.0 1.5 2.5 
10.0 1.5 2.0 
10.0 1.5 1.5 
10.0 1.5 1.0 
10.0 1.5 0.5 
10.0 1.0 9.5 
10.0 1.0 9.0 
10.0 1.0 8.5 
10.0 1.0 8.0 
10.0 1.0 7.5 
10.0 1.0 7.0 
10.0 1.0 6.5 
10.0 1.0 6.0 
10.0 1.0 5.5 
10.0 1.0 5.0 
10.0 1.0 4.5 
10.0 1.0 4.0 
10.0 1.0 3.5 
10.0 1.0 3.0 
10.0 1.0 2.5 
10.0 1.0 2.0 
10.0 1.0 1.5 
10.0 1.0 1.0 
10.0 1.0 0.5 
10.0 0.5 9.5 
10.0 0.5 9.0 
10.0 0.5 8.5 
10.0 0.5 8.0 
10.0 0.5 7.5 
10.0 0.5 7.0 
10.0 0.5 6.5 
10.0 0.5 6.0 
10.0 0.5 5.5 
10.0 0.5 5.0 
10.0 0.5 4.5 
10.0 0.5 4.0 
10.0 0.5 3.5 
10.0 0.5 3.0 
10.0 0.5 2.5 
10.0 0.5 2.0 
10.0 0.5 1.5 
10.0 0.5 1.0 
10.0 0.5 0.5 
10.0 4.0 0.5 
10.0 4.0 1.0 
10.0 4.0 1.5 
10.0 4.0 2.0 
10.0 4.0 2.5 
10.0 4.0 3.0 
10.0 4.0 3.5 
10.0 4.0 4.0 
10.0 4.0 4.5 
10.0 4.0 5.0 
10.0 4.0 5.5 
10.0 4.0 6.0 
10.0 4.0 6.5 
10.0 4.0 7.0 
10.0 4.0 7.5 
10.0 4.0 8.0 
10.0 4.0 8.5 
10.0 4.0 9.0 
10.0 4.0 9.5 
7.40090813909 0.5 3.53877687378 
7.40183633028 0.5 4.03822597026 
7.39859891198 0.5 4.52801976075 
7.39147853252 0.5 5.02385766874 
7.36711787986 0.5 5.51969662018 
7.3233616847 0.5 6.00210189765 
7.31283043428 0.5 6.48961569567 
2.46093996739 0.5 6.3590890539 
2.49231593136 0.5 5.83934135185 
2.50608171104 0.5 5.34174189264 
2.51273473686 0.5 4.85047427174 
2.52901690423 0.5 4.37507147986 
2.57482727085 0.5 3.92164137808 
2.5841021495 0.5 3.45288830251 
3.54491405784 0.5 7.53802241438 
4.07964066472 0.5 7.50771179724 
4.60992057866 0.5 7.49945476457 
5.11708064033 0.5 7.49453692571 
5.61967290399 0.5 7.487489668 
6.07223470109 0.5 7.44666980013 
6.51448861801 0.5 7.36388594662 
6.98887828831 0.5 7.33951814765 
3.0210126868 0.5 2.61412191126 
3.52425062808 0.5 2.59596847263 
4.02146321071 0.5 2.59405350605 
5.03124673517 0.5 2.1959269044 
5.01919351614 0.5 2.60127251883 
5.51520709271 0.5 2.60447919152 
6.01239611117 0.5 2.61862344568 
6.50837820785 0.5 2.63887710116 
1.00375609411 0.5 0.500953907768 
1.50032309458 0.5 0.488992088027 
2.00100806808 0.5 0.483372584463 
2.5020973052 0.5 0.470438473591 
3.00607481316 0.5 0.470924349999 
3.50729185331 0.5 0.459883152673 
4.01033126869 0.5 0.457570769051 
4.51070258109 0.5 0.464695813863 
5.01390685469 0.5 0.471632627543 
5.51329903603 0.5 0.46709510435 
6.01297963992 0.5 0.475022528313 
6.51341035579 0.5 0.474521581291 
7.01292049101 0.5 0.480628920068 
7.51580562356 0.5 0.488183849963 
8.01141242369 0.5 0.497838869679 
8.50345311851 0.5 0.503747733647 
9.00096477628 0.5 0.504254629904 
9.50020393179 0.5 0.502930214963 
0.512183549297 0.5 9.48507336737 
1.02227204849 0.5 9.4809203521 
1.51973475889 0.5 9.48517632128 
2.01492769242 0.5 9.49979369175 
2.5064879849 0.5 9.52312524799 
3.0013620086 0.5 9.53515692102 
3.49445322315 0.5 9.52922059145 
3.98360099726 0.5 9.50866735407 
4.47470657796 0.5 9.49503496646 
4.97440325193 0.5 9.49083196854 
5.47292240611 0.5 9.48961021372 
5.97291831485 0.5 9.49014976231 
6.47248132444 0.5 9.49338409983 
6.97255567661 0.5 9.4989534023 
7.47557008962 0.5 9.50235502066 
7.98457714605 0.5 9.49733154729 
8.48980411483 0.5 9.48880350874 
9.49066049577 0.5 9.48768780873 
0.536917235384 0.5 8.9709061066 
0.540705485306 0.5 8.47528350075 
0.534790605608 0.5 7.98387354628 
0.502867614708 0.5 7.49357251545 
0.476201838394 0.5 6.99237700991 
0.466872882451 0.5 6.48726415375 
0.4725043587 0.5 5.985072171 
0.485290958355 0.5 5.48761336992 
0.501248242557 0.5 4.98511852882 
0.513557159983 0.5 4.48236871322 
0.526811442587 0.5 3.97849915114 
0.527047216181 0.5 3.48105419497 
0.513802562373 0.5 2.98880788284 
0.504301325386 0.5 2.49416632101 
0.501909975451 0.5 1.99653260202 
0.504193114595 0.5 1.4989045882 
0.501613310461 0.5 0.999733303457 
0.50136956058 0.5 0.499629741858 
9.50289083304 0.5 1.00337465644 
9.51039235175 0.5 1.50432126743 
9.52445050143 0.5 2.00500804865 
9.53540839099 0.5 2.50895577799 
9.53832354331 0.5 3.01298817041 
9.53567576153 0.5 3.51129669346 
9.52926328341 0.5 4.01153983342 
9.53822862968 0.5 4.51477376976 
9.53499184322 0.5 5.01641239396 
9.52667524311 0.5 5.51601947169 
9.51569014864 0.5 6.01496878123 
9.50687575386 0.5 6.51465135861 
9.50356071498 0.5 7.01076593899 
9.49888049129 0.5 7.50770342763 
9.49151086127 0.5 8.00197556034 
9.48954707716 0.5 8.49660190625 
9.4888026213 0.5 8.99007797489 
6.99350093411 0.5 2.64267832893 
7.34111706602 0.5 6.93383747923 
2.52881738767 0.5 6.99947251363 
2.60312183389 0.5 3.04993119656 
7.39605958774 0.5 3.05279765942 
8.22680454215 0.5 4.06382309856 
8.20537618578 0.5 5.05418539026 
7.73848092427 0.5 6.00977098879 
7.73513100604 0.5 6.46070850205 
7.71938567358 0.5 6.88114791303 
2.14636551536 0.5 6.95037771282 
2.14016283079 0.5 6.55561853771 
3.0051896197 0.5 7.56937062409 
6.59603224661 0.5 7.66532577289 
6.97076680749 0.5 7.7180545898 
7.35436467203 0.5 7.29639431712 
2.58574146794 0.5 2.65376638989 
4.04039326718 0.5 1.7685171351 
4.53110191226 0.5 2.18965418362 
6.02788739851 0.5 2.21983704978 
6.50675577414 0.5 2.23197693842 
6.9669467469 0.5 2.23599333546 
1.00124082398 0.5 0.989509104327 
1.50134599475 0.5 0.973423496814 
2.0019734361 0.5 0.952534814388 
2.5076857151 0.5 0.936801236089 
3.01228578246 0.5 0.917073715316 
3.51874564932 0.5 0.907514775542 
4.02117426124 0.5 0.909889388155 
4.52137582658 0.5 0.907947540342 
5.02107466798 0.5 0.92060238169 
5.52111338117 0.5 0.927543305337 
6.02189041573 0.5 0.93300400192 
6.52427331192 0.5 0.942181343655 
7.02724762259 0.5 0.95497590822 
7.52777892253 0.5 0.975199894413 
8.02763365412 0.5 1.00015216436 
8.51664707798 0.5 1.01348015716 
9.00977401285 0.5 1.00961550763 
1.05541045348 0.5 8.96557501961 
1.57208548164 0.5 8.96304918955 
2.07245058186 0.5 8.98485902371 
2.5274626759 0.5 9.0496788817 
2.99946912365 0.5 9.08591913092 
3.46737552016 0.5 9.0566000074 
3.93180272256 0.5 9.00683292601 
4.42951676764 0.5 8.98646894975 
4.92894195543 0.5 8.98113910182 
5.42741091081 0.5 8.98113829502 
5.93010985532 0.5 8.98058143217 
6.42769927397 0.5 8.98969703593 
6.93332111285 0.5 9.00339211203 
7.44630052676 0.5 9.01174676536 
7.96156533131 0.5 9.00725900698 
8.47178904704 0.5 8.99499833766 
8.98133572854 0.5 8.98768860719 
1.09440933091 0.5 8.44868071818 
1.08274327508 0.5 7.96086323825 
0.998736549316 0.5 7.47241975519 
0.928189340573 0.5 6.96091582286 
0.93061703568 0.5 6.461960261 
0.945803945285 0.5 5.97691250746 
0.970924285277 0.5 5.48970219931 
0.997790595354 0.5 5.00470185 
1.02198116584 0.5 4.505495097 
1.05498264801 0.5 3.99013964377 
1.07113792044 0.5 3.4773498265 
1.03629054574 0.5 2.96621476913 
1.01666181032 0.5 2.46952032255 
1.00719075759 0.5 1.97585672996 
1.00546567054 0.5 1.48350171024 
9.02359742506 0.5 1.51281152144 
9.04365466521 0.5 2.01852387071 
9.06964650107 0.5 2.51844822287 
9.08217428528 0.5 3.02872174377 
9.08184771155 0.5 3.53150357324 
9.0860390603 0.5 4.03162208748 
9.0836002516 0.5 4.53236923564 
9.08162835601 0.5 5.03223858858 
9.06209271207 0.5 5.53029589984 
9.0478281122 0.5 6.0281164781 
9.03889949423 0.5 6.52469024597 
9.01765022138 0.5 7.02007139139 
8.999630986 0.5 7.51604225797 
8.98395754031 0.5 8.00750971049 
8.97987941259 0.5 8.49807657597 
7.39035541927 0.5 2.6682317975 
7.6395645714 0.5 7.20212298548 
2.4880017194 0.5 7.52341956913 
2.05095728082 0.5 2.77724084425 
7.80540847525 0.5 2.68150616134 
7.81507500403 0.5 3.11175026999 
7.80802357304 0.5 3.57412890321 
8.22135535278 0.5 4.55474965035 
8.18918890117 0.5 5.535981222 
8.17173729583 0.5 6.01402815139 
8.154553371 0.5 6.48935101218 
8.11959774124 0.5 6.97562421416 
2.03712676599 0.5 7.4240845364 
1.74872309363 0.5 6.87665921727 
1.8384531554 0.5 6.4002263314 
1.92084955626 0.5 6.054399519 
1.98417711083 0.5 5.65667848873 
2.00437514227 0.5 5.18500544293 
2.01748284513 0.5 4.70190610587 
2.04543807983 0.5 4.20410207231 
2.12052071628 0.5 3.73806247361 
2.11476027271 0.5 3.15609632452 
3.62750389443 0.5 8.02205973388 
2.98681094132 0.5 8.09838145514 
4.18805816308 0.5 8.00053869174 
4.71925679016 0.5 7.99014777834 
5.23942462988 0.5 7.98448655158 
5.76150774675 0.5 7.9746608058 
6.3309214191 0.5 7.9498783427 
6.91399134168 0.5 8.11202099008 
7.43505634506 0.5 7.69289838343 
2.5335517494 0.5 2.25398735676 
3.0388464991 0.5 2.20215957596 
3.53285850424 0.5 2.18674415018 
4.5371602585 0.5 1.77097905466 
5.03321871857 0.5 1.77712629758 
5.52983844013 0.5 1.78563607292 
6.02160725886 0.5 1.79689710633 
6.51186792888 0.5 1.81132108293 
7.00077532651 0.5 1.82916885397 
7.40225539611 0.5 2.26573179596 
1.50318898426 0.5 1.4519824119 
2.0051388749 0.5 1.41733408248 
2.51045491022 0.5 1.38341086399 
3.02347530329 0.5 1.36021275969 
3.52647338008 0.5 1.34267401114 
4.03468578515 0.5 1.34836534518 
4.53220816096 0.5 1.34634537231 
5.03126111957 0.5 1.35713003091 
5.52751699457 0.5 1.364022783 
6.0252283591 0.5 1.3762285604 
6.52494965614 0.5 1.39330248291 
7.02763175061 0.5 1.41580137882 
7.54181865586 0.5 1.45179432253 
8.03968399153 0.5 1.513290692 
8.53968398007 0.5 1.53484267705 
1.64004640727 0.5 8.42993141685 
2.17441795727 0.5 8.46876371462 
2.66497886892 0.5 8.55313216367 
2.99381712776 0.5 8.72202453847 
3.34214396956 0.5 8.54593987587 
3.80185727868 0.5 8.50384131429 
4.32142232695 0.5 8.48297631589 
4.8438389709 0.5 8.47812792984 
5.34899652813 0.5 8.47956819072 
5.86209198222 0.5 8.4700222649 
6.37055370333 0.5 8.480538234 
6.88453296842 0.5 8.51916882882 
7.43502619836 0.5 8.54569795316 
7.9577071572 0.5 8.52588543312 
8.46917485483 0.5 8.50468342042 
1.69992867011 0.5 7.88397749154 
1.41640124728 0.5 7.39559170101 
1.34990059697 0.5 6.89607961675 
1.39932198715 0.5 6.4289167561 
1.42056619372 0.5 5.98004549931 
1.4676587219 0.5 5.53529376074 
1.49862762839 0.5 5.07383551379 
1.52323328917 0.5 4.57820302322 
1.55698981068 0.5 4.05344044642 
1.6362912799 0.5 3.47537933482 
1.54903737512 0.5 2.91090342936 
1.51993582393 0.5 2.41278759304 
1.51061675304 0.5 1.933400087 
8.55377509293 0.5 2.03173144933 
8.61286708345 0.5 2.53303422671 
8.65160833275 0.5 3.05017974449 
8.6581831081 0.5 3.5525480394 
8.65661069762 0.5 4.05002513213 
8.64528712385 0.5 4.54797116906 
8.62871374918 0.5 5.04705567651 
8.61267011492 0.5 5.54343184409 
8.59373751417 0.5 6.03168757749 
8.56883715251 0.5 6.52216341493 
8.54719827984 0.5 7.0258994933 
8.49321669458 0.5 7.52032990472 
8.47348937951 0.5 8.01212171999 
2.02409241617 0.5 2.33362384117 
2.33614376529 0.5 7.99703296105 
7.96713489513 0.5 8.0404579009 
2.01437154981 0.5 1.87940654907 
8.02358769128 0.5 2.06711061474 
8.98847629729 0.5 9.4847415655 
1.72874139338 0.5 7.23529699016 
2.51696083907 0.5 1.82395022018 
3.02430030582 0.5 1.78586050391 
3.53228008175 0.5 1.76854055593 
7.49486288046 0.5 1.86651911802 
8.20506964632 0.5 2.59444190327 
8.23299949861 0.5 3.08605029348 
8.23138232808 0.5 3.57457960578 
7.45369234917 0.5 8.09424536387 
7.74055171878 0.5 2.3434219901 
2.26683224381 0.5 3.42000222032 
7.96374905885 0.5 7.51343040083 
7.80836414133 0.5 4.54876744704 
7.7942689275 0.5 5.04457348932 
7.76420307974 0.5 5.54189267719 
4.02991177872 0.5 2.1816224717 
5.52549155669 0.5 2.19709461978 
7.8066870679 0.5 4.06312621162 
4.51794211279 0.5 2.59697670924 
7.40090813909 1.0 3.53877687378 
7.40183633028 1.0 4.03822597026 
7.39859891198 1.0 4.52801976075 
7.39147853252 1.0 5.02385766874 
7.36711787986 1.0 5.51969662018 
7.3233616847 1.0 6.00210189765 
7.31283043428 1.0 6.48961569567 
2.46093996739 1.0 6.3590890539 
2.49231593136 1.0 5.83934135185 
2.50608171104 1.0 5.34174189264 
2.51273473686 1.0 4.85047427174 
2.52901690423 1.0 4.37507147986 
2.57482727085 1.0 3.92164137808 
2.5841021495 1.0 3.45288830251 
3.54491405784 1.0 7.53802241438 
4.07964066472 1.0 7.50771179724 
4.60992057866 1.0 7.49945476457 
5.11708064033 1.0 7.49453692571 
5.61967290399 1.0 7.487489668 
6.07223470109 1.0 7.44666980013 
6.51448861801 1.0 7.36388594662 
6.98887828831 1.0 7.33951814765 
3.0210126868 1.0 2.61412191126 
3.52425062808 1.0 2.59596847263 
4.02146321071 1.0 2.59405350605 
5.03124673517 1.0 2.1959269044 
5.01919351614 1.0 2.60127251883 
5.51520709271 1.0 2.60447919152 
6.01239611117 1.0 2.61862344568 
6.50837820785 1.0 2.63887710116 
1.00375609411 1.0 0.500953907768 
1.50032309458 1.0 0.488992088027 
2.00100806808 1.0 0.483372584463 
2.5020973052 1.0 0.470438473591 
3.00607481316 1.0 0.470924349999 
3.50729185331 1.0 0.459883152673 
4.01033126869 1.0 0.457570769051 
4.51070258109 1.0 0.464695813863 
5.01390685469 1.0 0.471632627543 
5.51329903603 1.0 0.46709510435 
6.01297963992 1.0 0.475022528313 
6.51341035579 1.0 0.474521581291 
7.01292049101 1.0 0.480628920068 
7.51580562356 1.0 0.488183849963 
8.01141242369 1.0 0.497838869679 
8.50345311851 1.0 0.503747733647 
9.00096477628 1.0 0.504254629904 
9.50020393179 1.0 0.502930214963 
0.512183549297 1.0 9.48507336737 
1.02227204849 1.0 9.4809203521 
1.51973475889 1.0 9.48517632128 
2.01492769242 1.0 9.49979369175 
2.5064879849 1.0 9.52312524799 
3.0013620086 1.0 9.53515692102 
3.49445322315 1.0 9.52922059145 
3.98360099726 1.0 9.50866735407 
4.47470657796 1.0 9.49503496646 
4.97440325193 1.0 9.49083196854 
5.47292240611 1.0 9.48961021372 
5.97291831485 1.0 9.49014976231 
6.47248132444 1.0 9.49338409983 
6.97255567661 1.0 9.4989534023 
7.47557008962 1.0 9.50235502066 
7.98457714605 1.0 9.49733154729 
8.48980411483 1.0 9.48880350874 
9.49066049577 1.0 9.48768780873 
0.536917235384 1.0 8.9709061066 
0.540705485306 1.0 8.47528350075 
0.534790605608 1.0 7.98387354628 
0.502867614708 1.0 7.49357251545 
0.476201838394 1.0 6.99237700991 
0.466872882451 1.0 6.48726415375 
0.4725043587 1.0 5.985072171 
0.485290958355 1.0 5.48761336992 
0.501248242557 1.0 4.98511852882 
0.513557159983 1.0 4.48236871322 
0.526811442587 1.0 3.97849915114 
0.527047216181 1.0 3.48105419497 
0.513802562373 1.0 2.98880788284 
0.504301325386 1.0 2.49416632101 
0.501909975451 1.0 1.99653260202 
0.504193114595 1.0 1.4989045882 
0.501613310461 1.0 0.999733303457 
0.50136956058 1.0 0.499629741858 
9.50289083304 1.0 1.00337465644 
9.51039235175 1.0 1.50432126743 
9.52445050143 1.0 2.00500804865 
9.53540839099 1.0 2.50895577799 
9.53832354331 1.0 3.01298817041 
9.53567576153 1.0 3.51129669346 
9.52926328341 1.0 4.01153983342 
9.53822862968 1.0 4.51477376976 
9.53499184322 1.0 5.01641239396 
9.52667524311 1.0 5.51601947169 
9.51569014864 1.0 6.01496878123 
9.50687575386 1.0 6.51465135861 
9.50356071498 1.0 7.01076593899 
9.49888049129 1.0 7.50770342763 
9.49151086127 1.0 8.00197556034 
9.48954707716 1.0 8.49660190625 
9.4888026213 1.0 8.99007797489 
6.99350093411 1.0 2.64267832893 
7.34111706602 1.0 6.93383747923 
2.52881738767 1.0 6.99947251363 
2.60312183389 1.0 3.04993119656 
7.39605958774 1.0 3.05279765942 
8.22680454215 1.0 4.06382309856 
8.20537618578 1.0 5.05418539026 
7.73848092427 1.0 6.00977098879 
7.73513100604 1.0 6.46070850205 
7.71938567358 1.0 6.88114791303 
2.14636551536 1.0 6.95037771282 
2.14016283079 1.0 6.55561853771 
3.0051896197 1.0 7.56937062409 
6.59603224661 1.0 7.66532577289 
6.97076680749 1.0 7.7180545898 
7.35436467203 1.0 7.29639431712 
2.58574146794 1.0 2.65376638989 
4.04039326718 1.0 1.7685171351 
4.53110191226 1.0 2.18965418362 
6.02788739851 1.0 2.21983704978 
6.50675577414 1.0 2.23197693842 
6.9669467469 1.0 2.23599333546 
1.00124082398 1.0 0.989509104327 
1.50134599475 1.0 0.973423496814 
2.0019734361 1.0 0.952534814388 
2.5076857151 1.0 0.936801236089 
3.01228578246 1.0 0.917073715316 
3.51874564932 1.0 0.907514775542 
4.02117426124 1.0 0.909889388155 
4.52137582658 1.0 0.907947540342 
5.02107466798 1.0 0.92060238169 
5.52111338117 1.0 0.927543305337 
6.02189041573 1.0 0.93300400192 
6.52427331192 1.0 0.942181343655 
7.02724762259 1.0 0.95497590822 
7.52777892253 1.0 0.975199894413 
8.02763365412 1.0 1.00015216436 
8.51664707798 1.0 1.01348015716 
9.00977401285 1.0 1.00961550763 
1.05541045348 1.0 8.96557501961 
1.57208548164 1.0 8.96304918955 
2.07245058186 1.0 8.98485902371 
2.5274626759 1.0 9.0496788817 
2.99946912365 1.0 9.08591913092 
3.46737552016 1.0 9.0566000074 
3.93180272256 1.0 9.00683292601 
4.42951676764 1.0 8.98646894975 
4.92894195543 1.0 8.98113910182 
5.42741091081 1.0 8.98113829502 
5.93010985532 1.0 8.98058143217 
6.42769927397 1.0 8.98969703593 
6.93332111285 1.0 9.00339211203 
7.44630052676 1.0 9.01174676536 
7.96156533131 1.0 9.00725900698 
8.47178904704 1.0 8.99499833766 
8.98133572854 1.0 8.98768860719 
1.09440933091 1.0 8.44868071818 
1.08274327508 1.0 7.96086323825 
0.998736549316 1.0 7.47241975519 
0.928189340573 1.0 6.96091582286 
0.93061703568 1.0 6.461960261 
0.945803945285 1.0 5.97691250746 
0.970924285277 1.0 5.48970219931 
0.997790595354 1.0 5.00470185 
1.02198116584 1.0 4.505495097 
1.05498264801 1.0 3.99013964377 
1.07113792044 1.0 3.4773498265 
1.03629054574 1.0 2.96621476913 
1.01666181032 1.0 2.46952032255 
1.00719075759 1.0 1.97585672996 
1.00546567054 1.0 1.48350171024 
9.02359742506 1.0 1.51281152144 
9.04365466521 1.0 2.01852387071 
9.06964650107 1.0 2.51844822287 
9.08217428528 1.0 3.02872174377 
9.08184771155 1.0 3.53150357324 
9.0860390603 1.0 4.03162208748 
9.0836002516 1.0 4.53236923564 
9.08162835601 1.0 5.03223858858 
9.06209271207 1.0 5.53029589984 
9.0478281122 1.0 6.0281164781 
9.03889949423 1.0 6.52469024597 
9.01765022138 1.0 7.02007139139 
8.999630986 1.0 7.51604225797 
8.98395754031 1.0 8.00750971049 
8.97987941259 1.0 8.49807657597 
7.39035541927 1.0 2.6682317975 
7.6395645714 1.0 7.20212298548 
2.4880017194 1.0 7.52341956913 
2.05095728082 1.0 2.77724084425 
7.80540847525 1.0 2.68150616134 
7.81507500403 1.0 3.11175026999 
7.80802357304 1.0 3.57412890321 
8.22135535278 1.0 4.55474965035 
8.18918890117 1.0 5.535981222 
8.17173729583 1.0 6.01402815139 
8.154553371 1.0 6.48935101218 
8.11959774124 1.0 6.97562421416 
2.03712676599 1.0 7.4240845364 
1.74872309363 1.0 6.87665921727 
1.8384531554 1.0 6.4002263314 
1.92084955626 1.0 6.054399519 
1.98417711083 1.0 5.65667848873 
2.00437514227 1.0 5.18500544293 
2.01748284513 1.0 4.70190610587 
2.04543807983 1.0 4.20410207231 
2.12052071628 1.0 3.73806247361 
2.11476027271 1.0 3.15609632452 
3.62750389443 1.0 8.02205973388 
2.98681094132 1.0 8.09838145514 
4.18805816308 1.0 8.00053869174 
4.71925679016 1.0 7.99014777834 
5.23942462988 1.0 7.98448655158 
5.76150774675 1.0 7.9746608058 
6.3309214191 1.0 7.9498783427 
6.91399134168 1.0 8.11202099008 
7.43505634506 1.0 7.69289838343 
2.5335517494 1.0 2.25398735676 
3.0388464991 1.0 2.20215957596 
3.53285850424 1.0 2.18674415018 
4.5371602585 1.0 1.77097905466 
5.03321871857 1.0 1.77712629758 
5.52983844013 1.0 1.78563607292 
6.02160725886 1.0 1.79689710633 
6.51186792888 1.0 1.81132108293 
7.00077532651 1.0 1.82916885397 
7.40225539611 1.0 2.26573179596 
1.50318898426 1.0 1.4519824119 
2.0051388749 1.0 1.41733408248 
2.51045491022 1.0 1.38341086399 
3.02347530329 1.0 1.36021275969 
3.52647338008 1.0 1.34267401114 
4.03468578515 1.0 1.34836534518 
4.53220816096 1.0 1.34634537231 
5.03126111957 1.0 1.35713003091 
5.52751699457 1.0 1.364022783 
6.0252283591 1.0 1.3762285604 
6.52494965614 1.0 1.39330248291 
7.02763175061 1.0 1.41580137882 
7.54181865586 1.0 1.45179432253 
8.03968399153 1.0 1.513290692 
8.53968398007 1.0 1.53484267705 
1.64004640727 1.0 8.42993141685 
2.17441795727 1.0 8.46876371462 
2.66497886892 1.0 8.55313216367 
2.99381712776 1.0 8.72202453847 
3.34214396956 1.0 8.54593987587 
3.80185727868 1.0 8.50384131429 
4.32142232695 1.0 8.48297631589 
4.8438389709 1.0 8.47812792984 
5.34899652813 1.0 8.47956819072 
5.86209198222 1.0 8.4700222649 
6.37055370333 1.0 8.480538234 
6.88453296842 1.0 8.51916882882 
7.43502619836 1.0 8.54569795316 
7.9577071572 1.0 8.52588543312 
8.46917485483 1.0 8.50468342042 
1.69992867011 1.0 7.88397749154 
1.41640124728 1.0 7.39559170101 
1.34990059697 1.0 6.89607961675 
1.39932198715 1.0 6.4289167561 
1.42056619372 1.0 5.98004549931 
1.4676587219 1.0 5.53529376074 
1.49862762839 1.0 5.07383551379 
1.52323328917 1.0 4.57820302322 
1.55698981068 1.0 4.05344044642 
1.6362912799 1.0 3.47537933482 
1.54903737512 1.0 2.91090342936 
1.51993582393 1.0 2.41278759304 
1.51061675304 1.0 1.933400087 
8.55377509293 1.0 2.03173144933 
8.61286708345 1.0 2.53303422671 
8.65160833275 1.0 3.05017974449 
8.6581831081 1.0 3.5525480394 
8.65661069762 1.0 4.05002513213 
8.64528712385 1.0 4.54797116906 
8.62871374918 1.0 5.04705567651 
8.61267011492 1.0 5.54343184409 
8.59373751417 1.0 6.03168757749 
8.56883715251 1.0 6.52216341493 
8.54719827984 1.0 7.0258994933 
8.49321669458 1.0 7.52032990472 
8.47348937951 1.0 8.01212171999 
2.02409241617 1.0 2.33362384117 
2.33614376529 1.0 7.99703296105 
7.96713489513 1.0 8.0404579009 
2.01437154981 1.0 1.87940654907 
8.02358769128 1.0 2.06711061474 
8.98847629729 1.0 9.4847415655 
1.72874139338 1.0 7.23529699016 
2.51696083907 1.0 1.82395022018 
3.02430030582 1.0 1.78586050391 
3.53228008175 1.0 1.76854055593 
7.49486288046 1.0 1.86651911802 
8.20506964632 1.0 2.59444190327 
8.23299949861 1.0 3.08605029348 
8.23138232808 1.0 3.57457960578 
7.45369234917 1.0 8.09424536387 
7.74055171878 1.0 2.3434219901 
2.26683224381 1.0 3.42000222032 
7.96374905885 1.0 7.51343040083 
7.80836414133 1.0 4.54876744704 
7.7942689275 1.0 5.04457348932 
7.76420307974 1.0 5.54189267719 
4.02991177872 1.0 2.1816224717 
5.52549155669 1.0 2.19709461978 
7.8066870679 1.0 4.06312621162 
4.51794211279 1.0 2.59697670924 
7.40090813909 1.5 3.53877687378 
7.40183633028 1.5 4.03822597026 
7.39859891198 1.5 4.52801976075 
7.39147853252 1.5 5.02385766874 
7.36711787986 1.5 5.51969662018 
7.3233616847 1.5 6.00210189765 
7.31283043428 1.5 6.48961569567 
2.46093996739 1.5 6.3590890539 
2.49231593136 1.5 5.83934135185 
2.50608171104 1.5 5.34174189264 
2.51273473686 1.5 4.85047427174 
2.52901690423 1.5 4.37507147986 
2.57482727085 1.5 3.92164137808 
2.5841021495 1.5 3.45288830251 
3.54491405784 1.5 7.53802241438 
4.07964066472 1.5 7.50771179724 
4.60992057866 1.5 7.49945476457 
5.11708064033 1.5 7.49453692571 
5.61967290399 1.5 7.487489668 
6.07223470109 1.5 7.44666980013 
6.51448861801 1.5 7.36388594662 
6.98887828831 1.5 7.33951814765 
3.0210126868 1.5 2.61412191126 
3.52425062808 1.5 2.59596847263 
4.02146321071 1.5 2.59405350605 
5.03124673517 1.5 2.1959269044 
5.01919351614 1.5 2.60127251883 
5.51520709271 1.5 2.60447919152 
6.01239611117 1.5 2.61862344568 
6.50837820785 1.5 2.63887710116 
1.00375609411 1.5 0.500953907768 
1.50032309458 1.5 0.488992088027 
2.00100806808 1.5 0.483372584463 
2.5020973052 1.5 0.470438473591 
3.00607481316 1.5 0.470924349999 
3.50729185331 1.5 0.459883152673 
4.01033126869 1.5 0.457570769051 
4.51070258109 1.5 0.464695813863 
5.01390685469 1.5 0.471632627543 
5.51329903603 1.5 0.46709510435 
6.01297963992 1.5 0.475022528313 
6.51341035579 1.5 0.474521581291 
7.01292049101 1.5 0.480628920068 
7.51580562356 1.5 0.488183849963 
8.01141242369 1.5 0.497838869679 
8.50345311851 1.5 0.503747733647 
9.00096477628 1.5 0.504254629904 
9.50020393179 1.5 0.502930214963 
0.512183549297 1.5 9.48507336737 
1.02227204849 1.5 9.4809203521 
1.51973475889 1.5 9.48517632128 
2.01492769242 1.5 9.49979369175 
2.5064879849 1.5 9.52312524799 
3.0013620086 1.5 9.53515692102 
3.49445322315 1.5 9.52922059145 
3.98360099726 1.5 9.50866735407 
4.47470657796 1.5 9.49503496646 
4.97440325193 1.5 9.49083196854 
5.47292240611 1.5 9.48961021372 
5.97291831485 1.5 9.49014976231 
6.47248132444 1.5 9.49338409983 
6.97255567661 1.5 9.4989534023 
7.47557008962 1.5 9.50235502066 
7.98457714605 1.5 9.49733154729 
8.48980411483 1.5 9.48880350874 
9.49066049577 1.5 9.48768780873 
0.536917235384 1.5 8.9709061066 
0.540705485306 1.5 8.47528350075 
0.534790605608 1.5 7.98387354628 
0.502867614708 1.5 7.49357251545 
0.476201838394 1.5 6.99237700991 
0.466872882451 1.5 6.48726415375 
0.4725043587 1.5 5.985072171 
0.485290958355 1.5 5.48761336992 
0.501248242557 1.5 4.98511852882 
0.513557159983 1.5 4.48236871322 
0.526811442587 1.5 3.97849915114 
0.527047216181 1.5 3.48105419497 
0.513802562373 1.5 2.98880788284 
0.504301325386 1.5 2.49416632101 
0.501909975451 1.5 1.99653260202 
0.504193114595 1.5 1.4989045882 
0.501613310461 1.5 0.999733303457 
0.50136956058 1.5 0.499629741858 
9.50289083304 1.5 1.00337465644 
9.51039235175 1.5 1.50432126743 
9.52445050143 1.5 2.00500804865 
9.53540839099 1.5 2.50895577799 
9.53832354331 1.5 3.01298817041 
9.53567576153 1.5 3.51129669346 
9.52926328341 1.5 4.01153983342 
9.53822862968 1.5 4.51477376976 
9.53499184322 1.5 5.01641239396 
9.52667524311 1.5 5.51601947169 
9.51569014864 1.5 6.01496878123 
9.50687575386 1.5 6.51465135861 
9.50356071498 1.5 7.01076593899 
9.49888049129 1.5 7.50770342763 
9.49151086127 1.5 8.00197556034 
9.48954707716 1.5 8.49660190625 
9.4888026213 1.5 8.99007797489 
6.99350093411 1.5 2.64267832893 
7.34111706602 1.5 6.93383747923 
2.52881738767 1.5 6.99947251363 
2.60312183389 1.5 3.04993119656 
7.39605958774 1.5 3.05279765942 
8.22680454215 1.5 4.06382309856 
8.20537618578 1.5 5.05418539026 
7.73848092427 1.5 6.00977098879 
7.73513100604 1.5 6.46070850205 
7.71938567358 1.5 6.88114791303 
2.14636551536 1.5 6.95037771282 
2.14016283079 1.5 6.55561853771 
3.0051896197 1.5 7.56937062409 
6.59603224661 1.5 7.66532577289 
6.97076680749 1.5 7.7180545898 
7.35436467203 1.5 7.29639431712 
2.58574146794 1.5 2.65376638989 
4.04039326718 1.5 1.7685171351 
4.53110191226 1.5 2.18965418362 
6.02788739851 1.5 2.21983704978 
6.50675577414 1.5 2.23197693842 
6.9669467469 1.5 2.23599333546 
1.00124082398 1.5 0.989509104327 
1.50134599475 1.5 0.973423496814 
2.0019734361 1.5 0.952534814388 
2.5076857151 1.5 0.936801236089 
3.01228578246 1.5 0.917073715316 
3.51874564932 1.5 0.907514775542 
4.02117426124 1.5 0.909889388155 
4.52137582658 1.5 0.907947540342 
5.02107466798 1.5 0.92060238169 
5.52111338117 1.5 0.927543305337 
6.02189041573 1.5 0.93300400192 
6.52427331192 1.5 0.942181343655 
7.02724762259 1.5 0.95497590822 
7.52777892253 1.5 0.975199894413 
8.02763365412 1.5 1.00015216436 
8.51664707798 1.5 1.01348015716 
9.00977401285 1.5 1.00961550763 
1.05541045348 1.5 8.96557501961 
1.57208548164 1.5 8.96304918955 
2.07245058186 1.5 8.98485902371 
2.5274626759 1.5 9.0496788817 
2.99946912365 1.5 9.08591913092 
3.46737552016 1.5 9.0566000074 
3.93180272256 1.5 9.00683292601 
4.42951676764 1.5 8.98646894975 
4.92894195543 1.5 8.98113910182 
5.42741091081 1.5 8.98113829502 
5.93010985532 1.5 8.98058143217 
6.42769927397 1.5 8.98969703593 
6.93332111285 1.5 9.00339211203 
7.44630052676 1.5 9.01174676536 
7.96156533131 1.5 9.00725900698 
8.47178904704 1.5 8.99499833766 
8.98133572854 1.5 8.98768860719 
1.09440933091 1.5 8.44868071818 
1.08274327508 1.5 7.96086323825 
0.998736549316 1.5 7.47241975519 
0.928189340573 1.5 6.96091582286 
0.93061703568 1.5 6.461960261 
0.945803945285 1.5 5.97691250746 
0.970924285277 1.5 5.48970219931 
0.997790595354 1.5 5.00470185 
1.02198116584 1.5 4.505495097 
1.05498264801 1.5 3.99013964377 
1.07113792044 1.5 3.4773498265 
1.03629054574 1.5 2.96621476913 
1.01666181032 1.5 2.46952032255 
1.00719075759 1.5 1.97585672996 
1.00546567054 1.5 1.48350171024 
9.02359742506 1.5 1.51281152144 
9.04365466521 1.5 2.01852387071 
9.06964650107 1.5 2.51844822287 
9.08217428528 1.5 3.02872174377 
9.08184771155 1.5 3.53150357324 
9.0860390603 1.5 4.03162208748 
9.0836002516 1.5 4.53236923564 
9.08162835601 1.5 5.03223858858 
9.06209271207 1.5 5.53029589984 
9.0478281122 1.5 6.0281164781 
9.03889949423 1.5 6.52469024597 
9.01765022138 1.5 7.02007139139 
8.999630986 1.5 7.51604225797 
8.98395754031 1.5 8.00750971049 
8.97987941259 1.5 8.49807657597 
7.39035541927 1.5 2.6682317975 
7.6395645714 1.5 7.20212298548 
2.4880017194 1.5 7.52341956913 
2.05095728082 1.5 2.77724084425 
7.80540847525 1.5 2.68150616134 
7.81507500403 1.5 3.11175026999 
7.80802357304 1.5 3.57412890321 
8.22135535278 1.5 4.55474965035 
8.18918890117 1.5 5.535981222 
8.17173729583 1.5 6.01402815139 
8.154553371 1.5 6.48935101218 
8.11959774124 1.5 6.97562421416 
2.03712676599 1.5 7.4240845364 
1.74872309363 1.5 6.87665921727 
1.8384531554 1.5 6.4002263314 
1.92084955626 1.5 6.054399519 
1.98417711083 1.5 5.65667848873 
2.00437514227 1.5 5.18500544293 
2.01748284513 1.5 4.70190610587 
2.04543807983 1.5 4.20410207231 
2.12052071628 1.5 3.73806247361 
2.11476027271 1.5 3.15609632452 
3.62750389443 1.5 8.02205973388 
2.98681094132 1.5 8.09838145514 
4.18805816308 1.5 8.00053869174 
4.71925679016 1.5 7.99014777834 
5.23942462988 1.5 7.98448655158 
5.76150774675 1.5 7.9746608058 
6.3309214191 1.5 7.9498783427 
6.91399134168 1.5 8.11202099008 
7.43505634506 1.5 7.69289838343 
2.5335517494 1.5 2.25398735676 
3.0388464991 1.5 2.20215957596 
3.53285850424 1.5 2.18674415018 
4.5371602585 1.5 1.77097905466 
5.03321871857 1.5 1.77712629758 
5.52983844013 1.5 1.78563607292 
6.02160725886 1.5 1.79689710633 
6.51186792888 1.5 1.81132108293 
7.00077532651 1.5 1.82916885397 
7.40225539611 1.5 2.26573179596 
1.50318898426 1.5 1.4519824119 
2.0051388749 1.5 1.41733408248 
2.51045491022 1.5 1.38341086399 
3.02347530329 1.5 1.36021275969 
3.52647338008 1.5 1.34267401114 
4.03468578515 1.5 1.34836534518 
4.53220816096 1.5 1.34634537231 
5.03126111957 1.5 1.35713003091 
5.52751699457 1.5 1.364022783 
6.0252283591 1.5 1.3762285604 
6.52494965614 1.5 1.39330248291 
7.02763175061 1.5 1.41580137882 
7.54181865586 1.5 1.45179432253 
8.03968399153 1.5 1.513290692 
8.53968398007 1.5 1.53484267705 
1.64004640727 1.5 8.42993141685 
2.17441795727 1.5 8.46876371462 
2.66497886892 1.5 8.55313216367 
2.99381712776 1.5 8.72202453847 
3.34214396956 1.5 8.54593987587 
3.80185727868 1.5 8.50384131429 
4.32142232695 1.5 8.48297631589 
4.8438389709 1.5 8.47812792984 
5.34899652813 1.5 8.47956819072 
5.86209198222 1.5 8.4700222649 
6.37055370333 1.5 8.480538234 
6.88453296842 1.5 8.51916882882 
7.43502619836 1.5 8.54569795316 
7.9577071572 1.5 8.52588543312 
8.46917485483 1.5 8.50468342042 
1.69992867011 1.5 7.88397749154 
1.41640124728 1.5 7.39559170101 
1.34990059697 1.5 6.89607961675 
1.39932198715 1.5 6.4289167561 
1.42056619372 1.5 5.98004549931 
1.4676587219 1.5 5.53529376074 
1.49862762839 1.5 5.07383551379 
1.52323328917 1.5 4.57820302322 
1.55698981068 1.5 4.05344044642 
1.6362912799 1.5 3.47537933482 
1.54903737512 1.5 2.91090342936 
1.51993582393 1.5 2.41278759304 
1.51061675304 1.5 1.933400087 
8.55377509293 1.5 2.03173144933 
8.61286708345 1.5 2.53303422671 
8.65160833275 1.5 3.05017974449 
8.6581831081 1.5 3.5525480394 
8.65661069762 1.5 4.05002513213 
8.64528712385 1.5 4.54797116906 
8.62871374918 1.5 5.04705567651 
8.61267011492 1.5 5.54343184409 
8.59373751417 1.5 6.03168757749 
8.56883715251 1.5 6.52216341493 
8.54719827984 1.5 7.0258994933 
8.49321669458 1.5 7.52032990472 
8.47348937951 1.5 8.01212171999 
2.02409241617 1.5 2.33362384117 
2.33614376529 1.5 7.99703296105 
7.96713489513 1.5 8.0404579009 
2.01437154981 1.5 1.87940654907 
8.02358769128 1.5 2.06711061474 
8.98847629729 1.5 9.4847415655 
1.72874139338 1.5 7.23529699016 
2.51696083907 1.5 1.82395022018 
3.02430030582 1.5 1.78586050391 
3.53228008175 1.5 1.76854055593 
7.49486288046 1.5 1.86651911802 
8.20506964632 1.5 2.59444190327 
8.23299949861 1.5 3.08605029348 
8.23138232808 1.5 3.57457960578 
7.45369234917 1.5 8.09424536387 
7.74055171878 1.5 2.3434219901 
2.26683224381 1.5 3.42000222032 
7.96374905885 1.5 7.51343040083 
7.80836414133 1.5 4.54876744704 
7.7942689275 1.5 5.04457348932 
7.76420307974 1.5 5.54189267719 
4.02991177872 1.5 2.1816224717 
5.52549155669 1.5 2.19709461978 
7.8066870679 1.5 4.06312621162 
4.51794211279 1.5 2.59697670924 
7.40090813909 2.0 3.53877687378 
7.40183633028 2.0 4.03822597026 
7.39859891198 2.0 4.52801976075 
7.39147853252 2.0 5.02385766874 
7.36711787986 2.0 5.51969662018 
7.3233616847 2.0 6.00210189765 
7.31283043428 2.0 6.48961569567 
2.46093996739 2.0 6.3590890539 
2.49231593136 2.0 5.83934135185 
2.50608171104 2.0 5.34174189264 
2.51273473686 2.0 4.85047427174 
2.52901690423 2.0 4.37507147986 
2.57482727085 2.0 3.92164137808 
2.5841021495 2.0 3.45288830251 
3.54491405784 2.0 7.53802241438 
4.07964066472 2.0 7.50771179724 
4.60992057866 2.0 7.49945476457 
5.11708064033 2.0 7.49453692571 
5.61967290399 2.0 7.487489668 
6.07223470109 2.0 7.44666980013 
6.51448861801 2.0 7.36388594662 
6.98887828831 2.0 7.33951814765 
3.0210126868 2.0 2.61412191126 
3.52425062808 2.0 2.59596847263 
4.02146321071 2.0 2.59405350605 
5.03124673517 2.0 2.1959269044 
5.01919351614 2.0 2.60127251883 
5.51520709271 2.0 2.60447919152 
6.01239611117 2.0 2.61862344568 
6.50837820785 2.0 2.63887710116 
1.00375609411 2.0 0.500953907768 
1.50032309458 2.0 0.488992088027 
2.00100806808 2.0 0.483372584463 
2.5020973052 2.0 0.470438473591 
3.00607481316 2.0 0.470924349999 
3.50729185331 2.0 0.459883152673 
4.01033126869 2.0 0.457570769051 
4.51070258109 2.0 0.464695813863 
5.01390685469 2.0 0.471632627543 
5.51329903603 2.0 0.46709510435 
6.01297963992 2.0 0.475022528313 
6.51341035579 2.0 0.474521581291 
7.01292049101 2.0 0.480628920068 
7.51580562356 2.0 0.488183849963 
8.01141242369 2.0 0.497838869679 
8.50345311851 2.0 0.503747733647 
9.00096477628 2.0 0.504254629904 
9.50020393179 2.0 0.502930214963 
0.512183549297 2.0 9.48507336737 
1.02227204849 2.0 9.4809203521 
1.51973475889 2.0 9.48517632128 
2.01492769242 2.0 9.49979369175 
2.5064879849 2.0 9.52312524799 
3.0013620086 2.0 9.53515692102 
3.49445322315 2.0 9.52922059145 
3.98360099726 2.0 9.50866735407 
4.47470657796 2.0 9.49503496646 
4.97440325193 2.0 9.49083196854 
5.47292240611 2.0 9.48961021372 
5.97291831485 2.0 9.49014976231 
6.47248132444 2.0 9.49338409983 
6.97255567661 2.0 9.4989534023 
7.47557008962 2.0 9.50235502066 
7.98457714605 2.0 9.49733154729 
8.48980411483 2.0 9.48880350874 
9.49066049577 2.0 9.48768780873 
0.536917235384 2.0 8.9709061066 
0.540705485306 2.0 8.47528350075 
0.534790605608 2.0 7.98387354628 
0.502867614708 2.0 7.49357251545 
0.476201838394 2.0 6.99237700991 
0.466872882451 2.0 6.48726415375 
0.4725043587 2.0 5.985072171 
0.485290958355 2.0 5.48761336992 
0.501248242557 2.0 4.98511852882 
0.513557159983 2.0 4.48236871322 
0.526811442587 2.0 3.97849915114 
0.527047216181 2.0 3.48105419497 
0.513802562373 2.0 2.98880788284 
0.504301325386 2.0 2.49416632101 
0.501909975451 2.0 1.99653260202 
0.504193114595 2.0 1.4989045882 
0.501613310461 2.0 0.999733303457 
0.50136956058 2.0 0.499629741858 
9.50289083304 2.0 1.00337465644 
9.51039235175 2.0 1.50432126743 
9.52445050143 2.0 2.00500804865 
9.53540839099 2.0 2.50895577799 
9.53832354331 2.0 3.01298817041 
9.53567576153 2.0 3.51129669346 
9.52926328341 2.0 4.01153983342 
9.53822862968 2.0 4.51477376976 
9.53499184322 2.0 5.01641239396 
9.52667524311 2.0 5.51601947169 
9.51569014864 2.0 6.01496878123 
9.50687575386 2.0 6.51465135861 
9.50356071498 2.0 7.01076593899 
9.49888049129 2.0 7.50770342763 
9.49151086127 2.0 8.00197556034 
9.48954707716 2.0 8.49660190625 
9.4888026213 2.0 8.99007797489 
6.99350093411 2.0 2.64267832893 
7.34111706602 2.0 6.93383747923 
2.52881738767 2.0 6.99947251363 
2.60312183389 2.0 3.04993119656 
7.39605958774 2.0 3.05279765942 
8.22680454215 2.0 4.06382309856 
8.20537618578 2.0 5.05418539026 
7.73848092427 2.0 6.00977098879 
7.73513100604 2.0 6.46070850205 
7.71938567358 2.0 6.88114791303 
2.14636551536 2.0 6.95037771282 
2.14016283079 2.0 6.55561853771 
3.0051896197 2.0 7.56937062409 
6.59603224661 2.0 7.66532577289 
6.97076680749 2.0 7.7180545898 
7.35436467203 2.0 7.29639431712 
2.58574146794 2.0 2.65376638989 
4.04039326718 2.0 1.7685171351 
4.53110191226 2.0 2.18965418362 
6.02788739851 2.0 2.21983704978 
6.50675577414 2.0 2.23197693842 
6.9669467469 2.0 2.23599333546 
1.00124082398 2.0 0.989509104327 
1.50134599475 2.0 0.973423496814 
2.0019734361 2.0 0.952534814388 
2.5076857151 2.0 0.936801236089 
3.01228578246 2.0 0.917073715316 
3.51874564932 2.0 0.907514775542 
4.02117426124 2.0 0.909889388155 
4.52137582658 2.0 0.907947540342 
5.02107466798 2.0 0.92060238169 
5.52111338117 2.0 0.927543305337 
6.02189041573 2.0 0.93300400192 
6.52427331192 2.0 0.942181343655 
7.02724762259 2.0 0.95497590822 
7.52777892253 2.0 0.975199894413 
8.02763365412 2.0 1.00015216436 
8.51664707798 2.0 1.01348015716 
9.00977401285 2.0 1.00961550763 
1.05541045348 2.0 8.96557501961 
1.57208548164 2.0 8.96304918955 
2.07245058186 2.0 8.98485902371 
2.5274626759 2.0 9.0496788817 
2.99946912365 2.0 9.08591913092 
3.46737552016 2.0 9.0566000074 
3.93180272256 2.0 9.00683292601 
4.42951676764 2.0 8.98646894975 
4.92894195543 2.0 8.98113910182 
5.42741091081 2.0 8.98113829502 
5.93010985532 2.0 8.98058143217 
6.42769927397 2.0 8.98969703593 
6.93332111285 2.0 9.00339211203 
7.44630052676 2.0 9.01174676536 
7.96156533131 2.0 9.00725900698 
8.47178904704 2.0 8.99499833766 
8.98133572854 2.0 8.98768860719 
1.09440933091 2.0 8.44868071818 
1.08274327508 2.0 7.96086323825 
0.998736549316 2.0 7.47241975519 
0.928189340573 2.0 6.96091582286 
0.93061703568 2.0 6.461960261 
0.945803945285 2.0 5.97691250746 
0.970924285277 2.0 5.48970219931 
0.997790595354 2.0 5.00470185 
1.02198116584 2.0 4.505495097 
1.05498264801 2.0 3.99013964377 
1.07113792044 2.0 3.4773498265 
1.03629054574 2.0 2.96621476913 
1.01666181032 2.0 2.46952032255 
1.00719075759 2.0 1.97585672996 
1.00546567054 2.0 1.48350171024 
9.02359742506 2.0 1.51281152144 
9.04365466521 2.0 2.01852387071 
9.06964650107 2.0 2.51844822287 
9.08217428528 2.0 3.02872174377 
9.08184771155 2.0 3.53150357324 
9.0860390603 2.0 4.03162208748 
9.0836002516 2.0 4.53236923564 
9.08162835601 2.0 5.03223858858 
9.06209271207 2.0 5.53029589984 
9.0478281122 2.0 6.0281164781 
9.03889949423 2.0 6.52469024597 
9.01765022138 2.0 7.02007139139 
8.999630986 2.0 7.51604225797 
8.98395754031 2.0 8.00750971049 
8.97987941259 2.0 8.49807657597 
7.39035541927 2.0 2.6682317975 
7.6395645714 2.0 7.20212298548 
2.4880017194 2.0 7.52341956913 
2.05095728082 2.0 2.77724084425 
7.80540847525 2.0 2.68150616134 
7.81507500403 2.0 3.11175026999 
7.80802357304 2.0 3.57412890321 
8.22135535278 2.0 4.55474965035 
8.18918890117 2.0 5.535981222 
8.17173729583 2.0 6.01402815139 
8.154553371 2.0 6.48935101218 
8.11959774124 2.0 6.97562421416 
2.03712676599 2.0 7.4240845364 
1.74872309363 2.0 6.87665921727 
1.8384531554 2.0 6.4002263314 
1.92084955626 2.0 6.054399519 
1.98417711083 2.0 5.65667848873 
2.00437514227 2.0 5.18500544293 
2.01748284513 2.0 4.70190610587 
2.04543807983 2.0 4.20410207231 
2.12052071628 2.0 3.73806247361 
2.11476027271 2.0 3.15609632452 
3.62750389443 2.0 8.02205973388 
2.98681094132 2.0 8.09838145514 
4.18805816308 2.0 8.00053869174 
4.71925679016 2.0 7.99014777834 
5.23942462988 2.0 7.98448655158 
5.76150774675 2.0 7.9746608058 
6.3309214191 2.0 7.9498783427 
6.91399134168 2.0 8.11202099008 
7.43505634506 2.0 7.69289838343 
2.5335517494 2.0 2.25398735676 
3.0388464991 2.0 2.20215957596 
3.53285850424 2.0 2.18674415018 
4.5371602585 2.0 1.77097905466 
5.03321871857 2.0 1.77712629758 
5.52983844013 2.0 1.78563607292 
6.02160725886 2.0 1.79689710633 
6.51186792888 2.0 1.81132108293 
7.00077532651 2.0 1.82916885397 
7.40225539611 2.0 2.26573179596 
1.50318898426 2.0 1.4519824119 
2.0051388749 2.0 1.41733408248 
2.51045491022 2.0 1.38341086399 
3.02347530329 2.0 1.36021275969 
3.52647338008 2.0 1.34267401114 
4.03468578515 2.0 1.34836534518 
4.53220816096 2.0 1.34634537231 
5.03126111957 2.0 1.35713003091 
5.52751699457 2.0 1.364022783 
6.0252283591 2.0 1.3762285604 
6.52494965614 2.0 1.39330248291 
7.02763175061 2.0 1.41580137882 
7.54181865586 2.0 1.45179432253 
8.03968399153 2.0 1.513290692 
8.53968398007 2.0 1.53484267705 
1.64004640727 2.0 8.42993141685 
2.17441795727 2.0 8.46876371462 
2.66497886892 2.0 8.55313216367 
2.99381712776 2.0 8.72202453847 
3.34214396956 2.0 8.54593987587 
3.80185727868 2.0 8.50384131429 
4.32142232695 2.0 8.48297631589 
4.8438389709 2.0 8.47812792984 
5.34899652813 2.0 8.47956819072 
5.86209198222 2.0 8.4700222649 
6.37055370333 2.0 8.480538234 
6.88453296842 2.0 8.51916882882 
7.43502619836 2.0 8.54569795316 
7.9577071572 2.0 8.52588543312 
8.46917485483 2.0 8.50468342042 
1.69992867011 2.0 7.88397749154 
1.41640124728 2.0 7.39559170101 
1.34990059697 2.0 6.89607961675 
1.39932198715 2.0 6.4289167561 
1.42056619372 2.0 5.98004549931 
1.4676587219 2.0 5.53529376074 
1.49862762839 2.0 5.07383551379 
1.52323328917 2.0 4.57820302322 
1.55698981068 2.0 4.05344044642 
1.6362912799 2.0 3.47537933482 
1.54903737512 2.0 2.91090342936 
1.51993582393 2.0 2.41278759304 
1.51061675304 2.0 1.933400087 
8.55377509293 2.0 2.03173144933 
8.61286708345 2.0 2.53303422671 
8.65160833275 2.0 3.05017974449 
8.6581831081 2.0 3.5525480394 
8.65661069762 2.0 4.05002513213 
8.64528712385 2.0 4.54797116906 
8.62871374918 2.0 5.04705567651 
8.61267011492 2.0 5.54343184409 
8.59373751417 2.0 6.03168757749 
8.56883715251 2.0 6.52216341493 
8.54719827984 2.0 7.0258994933 
8.49321669458 2.0 7.52032990472 
8.47348937951 2.0 8.01212171999 
2.02409241617 2.0 2.33362384117 
2.33614376529 2.0 7.99703296105 
7.96713489513 2.0 8.0404579009 
2.01437154981 2.0 1.87940654907 
8.02358769128 2.0 2.06711061474 
8.98847629729 2.0 9.4847415655 
1.72874139338 2.0 7.23529699016 
2.51696083907 2.0 1.82395022018 
3.02430030582 2.0 1.78586050391 
3.53228008175 2.0 1.76854055593 
7.49486288046 2.0 1.86651911802 
8.20506964632 2.0 2.59444190327 
8.23299949861 2.0 3.08605029348 
8.23138232808 2.0 3.57457960578 
7.45369234917 2.0 8.09424536387 
7.74055171878 2.0 2.3434219901 
2.26683224381 2.0 3.42000222032 
7.96374905885 2.0 7.51343040083 
7.80836414133 2.0 4.54876744704 
7.7942689275 2.0 5.04457348932 
7.76420307974 2.0 5.54189267719 
4.02991177872 2.0 2.1816224717 
5.52549155669 2.0 2.19709461978 
7.8066870679 2.0 4.06312621162 
4.51794211279 2.0 2.59697670924 
7.40090813909 2.5 3.53877687378 
7.40183633028 2.5 4.03822597026 
7.39859891198 2.5 4.52801976075 
7.39147853252 2.5 5.02385766874 
7.36711787986 2.5 5.51969662018 
7.3233616847 2.5 6.00210189765 
7.31283043428 2.5 6.48961569567 
2.46093996739 2.5 6.3590890539 
2.49231593136 2.5 5.83934135185 
2.50608171104 2.5 5.34174189264 
2.51273473686 2.5 4.85047427174 
2.52901690423 2.5 4.37507147986 
2.57482727085 2.5 3.92164137808 
2.5841021495 2.5 3.45288830251 
3.54491405784 2.5 7.53802241438 
4.07964066472 2.5 7.50771179724 
4.60992057866 2.5 7.49945476457 
5.11708064033 2.5 7.49453692571 
5.61967290399 2.5 7.487489668 
6.07223470109 2.5 7.44666980013 
6.51448861801 2.5 7.36388594662 
6.98887828831 2.5 7.33951814765 
3.0210126868 2.5 2.61412191126 
3.52425062808 2.5 2.59596847263 
4.02146321071 2.5 2.59405350605 
5.03124673517 2.5 2.1959269044 
5.01919351614 2.5 2.60127251883 
5.51520709271 2.5 2.60447919152 
6.01239611117 2.5 2.61862344568 
6.50837820785 2.5 2.63887710116 
1.00375609411 2.5 0.500953907768 
1.50032309458 2.5 0.488992088027 
2.00100806808 2.5 0.483372584463 
2.5020973052 2.5 0.470438473591 
3.00607481316 2.5 0.470924349999 
3.50729185331 2.5 0.459883152673 
4.01033126869 2.5 0.457570769051 
4.51070258109 2.5 0.464695813863 
5.01390685469 2.5 0.471632627543 
5.51329903603 2.5 0.46709510435 
6.01297963992 2.5 0.475022528313 
6.51341035579 2.5 0.474521581291 
7.01292049101 2.5 0.480628920068 
7.51580562356 2.5 0.488183849963 
8.01141242369 2.5 0.497838869679 
8.50345311851 2.5 0.503747733647 
9.00096477628 2.5 0.504254629904 
9.50020393179 2.5 0.502930214963 
0.512183549297 2.5 9.48507336737 
1.02227204849 2.5 9.4809203521 
1.51973475889 2.5 9.48517632128 
2.01492769242 2.5 9.49979369175 
2.5064879849 2.5 9.52312524799 
3.0013620086 2.5 9.53515692102 
3.49445322315 2.5 9.52922059145 
3.98360099726 2.5 9.50866735407 
4.47470657796 2.5 9.49503496646 
4.97440325193 2.5 9.49083196854 
5.47292240611 2.5 9.48961021372 
5.97291831485 2.5 9.49014976231 
6.47248132444 2.5 9.49338409983 
6.97255567661 2.5 9.4989534023 
7.47557008962 2.5 9.50235502066 
7.98457714605 2.5 9.49733154729 
8.48980411483 2.5 9.48880350874 
9.49066049577 2.5 9.48768780873 
0.536917235384 2.5 8.9709061066 
0.540705485306 2.5 8.47528350075 
0.534790605608 2.5 7.98387354628 
0.502867614708 2.5 7.49357251545 
0.476201838394 2.5 6.99237700991 
0.466872882451 2.5 6.48726415375 
0.4725043587 2.5 5.985072171 
0.485290958355 2.5 5.48761336992 
0.501248242557 2.5 4.98511852882 
0.513557159983 2.5 4.48236871322 
0.526811442587 2.5 3.97849915114 
0.527047216181 2.5 3.48105419497 
0.513802562373 2.5 2.98880788284 
0.504301325386 2.5 2.49416632101 
0.501909975451 2.5 1.99653260202 
0.504193114595 2.5 1.4989045882 
0.501613310461 2.5 0.999733303457 
0.50136956058 2.5 0.499629741858 
9.50289083304 2.5 1.00337465644 
9.51039235175 2.5 1.50432126743 
9.52445050143 2.5 2.00500804865 
9.53540839099 2.5 2.50895577799 
9.53832354331 2.5 3.01298817041 
9.53567576153 2.5 3.51129669346 
9.52926328341 2.5 4.01153983342 
9.53822862968 2.5 4.51477376976 
9.53499184322 2.5 5.01641239396 
9.52667524311 2.5 5.51601947169 
9.51569014864 2.5 6.01496878123 
9.50687575386 2.5 6.51465135861 
9.50356071498 2.5 7.01076593899 
9.49888049129 2.5 7.50770342763 
9.49151086127 2.5 8.00197556034 
9.48954707716 2.5 8.49660190625 
9.4888026213 2.5 8.99007797489 
6.99350093411 2.5 2.64267832893 
7.34111706602 2.5 6.93383747923 
2.52881738767 2.5 6.99947251363 
2.60312183389 2.5 3.04993119656 
7.39605958774 2.5 3.05279765942 
8.22680454215 2.5 4.06382309856 
8.20537618578 2.5 5.05418539026 
7.73848092427 2.5 6.00977098879 
7.73513100604 2.5 6.46070850205 
7.71938567358 2.5 6.88114791303 
2.14636551536 2.5 6.95037771282 
2.14016283079 2.5 6.55561853771 
3.0051896197 2.5 7.56937062409 
6.59603224661 2.5 7.66532577289 
6.97076680749 2.5 7.7180545898 
7.35436467203 2.5 7.29639431712 
2.58574146794 2.5 2.65376638989 
4.04039326718 2.5 1.7685171351 
4.53110191226 2.5 2.18965418362 
6.02788739851 2.5 2.21983704978 
6.50675577414 2.5 2.23197693842 
6.9669467469 2.5 2.23599333546 
1.00124082398 2.5 0.989509104327 
1.50134599475 2.5 0.973423496814 
2.0019734361 2.5 0.952534814388 
2.5076857151 2.5 0.936801236089 
3.01228578246 2.5 0.917073715316 
3.51874564932 2.5 0.907514775542 
4.02117426124 2.5 0.909889388155 
4.52137582658 2.5 0.907947540342 
5.02107466798 2.5 0.92060238169 
5.52111338117 2.5 0.927543305337 
6.02189041573 2.5 0.93300400192 
6.52427331192 2.5 0.942181343655 
7.02724762259 2.5 0.95497590822 
7.52777892253 2.5 0.975199894413 
8.02763365412 2.5 1.00015216436 
8.51664707798 2.5 1.01348015716 
9.00977401285 2.5 1.00961550763 
1.05541045348 2.5 8.96557501961 
1.57208548164 2.5 8.96304918955 
2.07245058186 2.5 8.98485902371 
2.5274626759 2.5 9.0496788817 
2.99946912365 2.5 9.08591913092 
3.46737552016 2.5 9.0566000074 
3.93180272256 2.5 9.00683292601 
4.42951676764 2.5 8.98646894975 
4.92894195543 2.5 8.98113910182 
5.42741091081 2.5 8.98113829502 
5.93010985532 2.5 8.98058143217 
6.42769927397 2.5 8.98969703593 
6.93332111285 2.5 9.00339211203 
7.44630052676 2.5 9.01174676536 
7.96156533131 2.5 9.00725900698 
8.47178904704 2.5 8.99499833766 
8.98133572854 2.5 8.98768860719 
1.09440933091 2.5 8.44868071818 
1.08274327508 2.5 7.96086323825 
0.998736549316 2.5 7.47241975519 
0.928189340573 2.5 6.96091582286 
0.93061703568 2.5 6.461960261 
0.945803945285 2.5 5.97691250746 
0.970924285277 2.5 5.48970219931 
0.997790595354 2.5 5.00470185 
1.02198116584 2.5 4.505495097 
1.05498264801 2.5 3.99013964377 
1.07113792044 2.5 3.4773498265 
1.03629054574 2.5 2.96621476913 
1.01666181032 2.5 2.46952032255 
1.00719075759 2.5 1.97585672996 
1.00546567054 2.5 1.48350171024 
9.02359742506 2.5 1.51281152144 
9.04365466521 2.5 2.01852387071 
9.06964650107 2.5 2.51844822287 
9.08217428528 2.5 3.02872174377 
9.08184771155 2.5 3.53150357324 
9.0860390603 2.5 4.03162208748 
9.0836002516 2.5 4.53236923564 
9.08162835601 2.5 5.03223858858 
9.06209271207 2.5 5.53029589984 
9.0478281122 2.5 6.0281164781 
9.03889949423 2.5 6.52469024597 
9.01765022138 2.5 7.02007139139 
8.999630986 2.5 7.51604225797 
8.98395754031 2.5 8.00750971049 
8.97987941259 2.5 8.49807657597 
7.39035541927 2.5 2.6682317975 
7.6395645714 2.5 7.20212298548 
2.4880017194 2.5 7.52341956913 
2.05095728082 2.5 2.77724084425 
7.80540847525 2.5 2.68150616134 
7.81507500403 2.5 3.11175026999 
7.80802357304 2.5 3.57412890321 
8.22135535278 2.5 4.55474965035 
8.18918890117 2.5 5.535981222 
8.17173729583 2.5 6.01402815139 
8.154553371 2.5 6.48935101218 
8.11959774124 2.5 6.97562421416 
2.03712676599 2.5 7.4240845364 
1.74872309363 2.5 6.87665921727 
1.8384531554 2.5 6.4002263314 
1.92084955626 2.5 6.054399519 
1.98417711083 2.5 5.65667848873 
2.00437514227 2.5 5.18500544293 
2.01748284513 2.5 4.70190610587 
2.04543807983 2.5 4.20410207231 
2.12052071628 2.5 3.73806247361 
2.11476027271 2.5 3.15609632452 
3.62750389443 2.5 8.02205973388 
2.98681094132 2.5 8.09838145514 
4.18805816308 2.5 8.00053869174 
4.71925679016 2.5 7.99014777834 
5.23942462988 2.5 7.98448655158 
5.76150774675 2.5 7.9746608058 
6.3309214191 2.5 7.9498783427 
6.91399134168 2.5 8.11202099008 
7.43505634506 2.5 7.69289838343 
2.5335517494 2.5 2.25398735676 
3.0388464991 2.5 2.20215957596 
3.53285850424 2.5 2.18674415018 
4.5371602585 2.5 1.77097905466 
5.03321871857 2.5 1.77712629758 
5.52983844013 2.5 1.78563607292 
6.02160725886 2.5 1.79689710633 
6.51186792888 2.5 1.81132108293 
7.00077532651 2.5 1.82916885397 
7.40225539611 2.5 2.26573179596 
1.50318898426 2.5 1.4519824119 
2.0051388749 2.5 1.41733408248 
2.51045491022 2.5 1.38341086399 
3.02347530329 2.5 1.36021275969 
3.52647338008 2.5 1.34267401114 
4.03468578515 2.5 1.34836534518 
4.53220816096 2.5 1.34634537231 
5.03126111957 2.5 1.35713003091 
5.52751699457 2.5 1.364022783 
6.0252283591 2.5 1.3762285604 
6.52494965614 2.5 1.39330248291 
7.02763175061 2.5 1.41580137882 
7.54181865586 2.5 1.45179432253 
8.03968399153 2.5 1.513290692 
8.53968398007 2.5 1.53484267705 
1.64004640727 2.5 8.42993141685 
2.17441795727 2.5 8.46876371462 
2.66497886892 2.5 8.55313216367 
2.99381712776 2.5 8.72202453847 
3.34214396956 2.5 8.54593987587 
3.80185727868 2.5 8.50384131429 
4.32142232695 2.5 8.48297631589 
4.8438389709 2.5 8.47812792984 
5.34899652813 2.5 8.47956819072 
5.86209198222 2.5 8.4700222649 
6.37055370333 2.5 8.480538234 
6.88453296842 2.5 8.51916882882 
7.43502619836 2.5 8.54569795316 
7.9577071572 2.5 8.52588543312 
8.46917485483 2.5 8.50468342042 
1.69992867011 2.5 7.88397749154 
1.41640124728 2.5 7.39559170101 
1.34990059697 2.5 6.89607961675 
1.39932198715 2.5 6.4289167561 
1.42056619372 2.5 5.98004549931 
1.4676587219 2.5 5.53529376074 
1.49862762839 2.5 5.07383551379 
1.52323328917 2.5 4.57820302322 
1.55698981068 2.5 4.05344044642 
1.6362912799 2.5 3.47537933482 
1.54903737512 2.5 2.91090342936 
1.51993582393 2.5 2.41278759304 
1.51061675304 2.5 1.933400087 
8.55377509293 2.5 2.03173144933 
8.61286708345 2.5 2.53303422671 
8.65160833275 2.5 3.05017974449 
8.6581831081 2.5 3.5525480394 
8.65661069762 2.5 4.05002513213 
8.64528712385 2.5 4.54797116906 
8.62871374918 2.5 5.04705567651 
8.61267011492 2.5 5.54343184409 
8.59373751417 2.5 6.03168757749 
8.56883715251 2.5 6.52216341493 
8.54719827984 2.5 7.0258994933 
8.49321669458 2.5 7.52032990472 
8.47348937951 2.5 8.01212171999 
2.02409241617 2.5 2.33362384117 
2.33614376529 2.5 7.99703296105 
7.96713489513 2.5 8.0404579009 
2.01437154981 2.5 1.87940654907 
8.02358769128 2.5 2.06711061474 
8.98847629729 2.5 9.4847415655 
1.72874139338 2.5 7.23529699016 
2.51696083907 2.5 1.82395022018 
3.02430030582 2.5 1.78586050391 
3.53228008175 2.5 1.76854055593 
7.49486288046 2.5 1.86651911802 
8.20506964632 2.5 2.59444190327 
8.23299949861 2.5 3.08605029348 
8.23138232808 2.5 3.57457960578 
7.45369234917 2.5 8.09424536387 
7.74055171878 2.5 2.3434219901 
2.26683224381 2.5 3.42000222032 
7.96374905885 2.5 7.51343040083 
7.80836414133 2.5 4.54876744704 
7.7942689275 2.5 5.04457348932 
7.76420307974 2.5 5.54189267719 
4.02991177872 2.5 2.1816224717 
5.52549155669 2.5 2.19709461978 
7.8066870679 2.5 4.06312621162 
4.51794211279 2.5 2.59697670924 
7.40090813909 3.0 3.53877687378 
7.40183633028 3.0 4.03822597026 
7.39859891198 3.0 4.52801976075 
7.39147853252 3.0 5.02385766874 
7.36711787986 3.0 5.51969662018 
7.3233616847 3.0 6.00210189765 
7.31283043428 3.0 6.48961569567 
2.46093996739 3.0 6.3590890539 
2.49231593136 3.0 5.83934135185 
2.50608171104 3.0 5.34174189264 
2.51273473686 3.0 4.85047427174 
2.52901690423 3.0 4.37507147986 
2.57482727085 3.0 3.92164137808 
2.5841021495 3.0 3.45288830251 
3.54491405784 3.0 7.53802241438 
4.07964066472 3.0 7.50771179724 
4.60992057866 3.0 7.49945476457 
5.11708064033 3.0 7.49453692571 
5.61967290399 3.0 7.487489668 
6.07223470109 3.0 7.44666980013 
6.51448861801 3.0 7.36388594662 
6.98887828831 3.0 7.33951814765 
3.0210126868 3.0 2.61412191126 
3.52425062808 3.0 2.59596847263 
4.02146321071 3.0 2.59405350605 
5.03124673517 3.0 2.1959269044 
5.01919351614 3.0 2.60127251883 
5.51520709271 3.0 2.60447919152 
6.01239611117 3.0 2.61862344568 
6.50837820785 3.0 2.63887710116 
1.00375609411 3.0 0.500953907768 
1.50032309458 3.0 0.488992088027 
2.00100806808 3.0 0.483372584463 
2.5020973052 3.0 0.470438473591 
3.00607481316 3.0 0.470924349999 
3.50729185331 3.0 0.459883152673 
4.01033126869 3.0 0.457570769051 
4.51070258109 3.0 0.464695813863 
5.01390685469 3.0 0.471632627543 
5.51329903603 3.0 0.46709510435 
6.01297963992 3.0 0.475022528313 
6.51341035579 3.0 0.474521581291 
7.01292049101 3.0 0.480628920068 
7.51580562356 3.0 0.488183849963 
8.01141242369 3.0 0.497838869679 
8.50345311851 3.0 0.503747733647 
9.00096477628 3.0 0.504254629904 
9.50020393179 3.0 0.502930214963 
0.512183549297 3.0 9.48507336737 
1.02227204849 3.0 9.4809203521 
1.51973475889 3.0 9.48517632128 
2.01492769242 3.0 9.49979369175 
2.5064879849 3.0 9.52312524799 
3.0013620086 3.0 9.53515692102 
3.49445322315 3.0 9.52922059145 
3.98360099726 3.0 9.50866735407 
4.47470657796 3.0 9.49503496646 
4.97440325193 3.0 9.49083196854 
5.47292240611 3.0 9.48961021372 
5.97291831485 3.0 9.49014976231 
6.47248132444 3.0 9.49338409983 
6.97255567661 3.0 9.4989534023 
7.47557008962 3.0 9.50235502066 
7.98457714605 3.0 9.49733154729 
8.48980411483 3.0 9.48880350874 
9.49066049577 3.0 9.48768780873 
0.536917235384 3.0 8.9709061066 
0.540705485306 3.0 8.47528350075 
0.534790605608 3.0 7.98387354628 
0.502867614708 3.0 7.49357251545 
0.476201838394 3.0 6.99237700991 
0.466872882451 3.0 6.48726415375 
0.4725043587 3.0 5.985072171 
0.485290958355 3.0 5.48761336992 
0.501248242557 3.0 4.98511852882 
0.513557159983 3.0 4.48236871322 
0.526811442587 3.0 3.97849915114 
0.527047216181 3.0 3.48105419497 
0.513802562373 3.0 2.98880788284 
0.504301325386 3.0 2.49416632101 
0.501909975451 3.0 1.99653260202 
0.504193114595 3.0 1.4989045882 
0.501613310461 3.0 0.999733303457 
0.50136956058 3.0 0.499629741858 
9.50289083304 3.0 1.00337465644 
9.51039235175 3.0 1.50432126743 
9.52445050143 3.0 2.00500804865 
9.53540839099 3.0 2.50895577799 
9.53832354331 3.0 3.01298817041 
9.53567576153 3.0 3.51129669346 
9.52926328341 3.0 4.01153983342 
9.53822862968 3.0 4.51477376976 
9.53499184322 3.0 5.01641239396 
9.52667524311 3.0 5.51601947169 
9.51569014864 3.0 6.01496878123 
9.50687575386 3.0 6.51465135861 
9.50356071498 3.0 7.01076593899 
9.49888049129 3.0 7.50770342763 
9.49151086127 3.0 8.00197556034 
9.48954707716 3.0 8.49660190625 
9.4888026213 3.0 8.99007797489 
6.99350093411 3.0 2.64267832893 
7.34111706602 3.0 6.93383747923 
2.52881738767 3.0 6.99947251363 
2.60312183389 3.0 3.04993119656 
7.39605958774 3.0 3.05279765942 
8.22680454215 3.0 4.06382309856 
8.20537618578 3.0 5.05418539026 
7.73848092427 3.0 6.00977098879 
7.73513100604 3.0 6.46070850205 
7.71938567358 3.0 6.88114791303 
2.14636551536 3.0 6.95037771282 
2.14016283079 3.0 6.55561853771 
3.0051896197 3.0 7.56937062409 
6.59603224661 3.0 7.66532577289 
6.97076680749 3.0 7.7180545898 
7.35436467203 3.0 7.29639431712 
2.58574146794 3.0 2.65376638989 
4.04039326718 3.0 1.7685171351 
4.53110191226 3.0 2.18965418362 
6.02788739851 3.0 2.21983704978 
6.50675577414 3.0 2.23197693842 
6.9669467469 3.0 2.23599333546 
1.00124082398 3.0 0.989509104327 
1.50134599475 3.0 0.973423496814 
2.0019734361 3.0 0.952534814388 
2.5076857151 3.0 0.936801236089 
3.01228578246 3.0 0.917073715316 
3.51874564932 3.0 0.907514775542 
4.02117426124 3.0 0.909889388155 
4.52137582658 3.0 0.907947540342 
5.02107466798 3.0 0.92060238169 
5.52111338117 3.0 0.927543305337 
6.02189041573 3.0 0.93300400192 
6.52427331192 3.0 0.942181343655 
7.02724762259 3.0 0.95497590822 
7.52777892253 3.0 0.975199894413 
8.02763365412 3.0 1.00015216436 
8.51664707798 3.0 1.01348015716 
9.00977401285 3.0 1.00961550763 
1.05541045348 3.0 8.96557501961 
1.57208548164 3.0 8.96304918955 
2.07245058186 3.0 8.98485902371 
2.5274626759 3.0 9.0496788817 
2.99946912365 3.0 9.08591913092 
3.46737552016 3.0 9.0566000074 
3.93180272256 3.0 9.00683292601 
4.42951676764 3.0 8.98646894975 
4.92894195543 3.0 8.98113910182 
5.42741091081 3.0 8.98113829502 
5.93010985532 3.0 8.98058143217 
6.42769927397 3.0 8.98969703593 
6.93332111285 3.0 9.00339211203 
7.44630052676 3.0 9.01174676536 
7.96156533131 3.0 9.00725900698 
8.47178904704 3.0 8.99499833766 
8.98133572854 3.0 8.98768860719 
1.09440933091 3.0 8.44868071818 
1.08274327508 3.0 7.96086323825 
0.998736549316 3.0 7.47241975519 
0.928189340573 3.0 6.96091582286 
0.93061703568 3.0 6.461960261 
0.945803945285 3.0 5.97691250746 
0.970924285277 3.0 5.48970219931 
0.997790595354 3.0 5.00470185 
1.02198116584 3.0 4.505495097 
1.05498264801 3.0 3.99013964377 
1.07113792044 3.0 3.4773498265 
1.03629054574 3.0 2.96621476913 
1.01666181032 3.0 2.46952032255 
1.00719075759 3.0 1.97585672996 
1.00546567054 3.0 1.48350171024 
9.02359742506 3.0 1.51281152144 
9.04365466521 3.0 2.01852387071 
9.06964650107 3.0 2.51844822287 
9.08217428528 3.0 3.02872174377 
9.08184771155 3.0 3.53150357324 
9.0860390603 3.0 4.03162208748 
9.0836002516 3.0 4.53236923564 
9.08162835601 3.0 5.03223858858 
9.06209271207 3.0 5.53029589984 
9.0478281122 3.0 6.0281164781 
9.03889949423 3.0 6.52469024597 
9.01765022138 3.0 7.02007139139 
8.999630986 3.0 7.51604225797 
8.98395754031 3.0 8.00750971049 
8.97987941259 3.0 8.49807657597 
7.39035541927 3.0 2.6682317975 
7.6395645714 3.0 7.20212298548 
2.4880017194 3.0 7.52341956913 
2.05095728082 3.0 2.77724084425 
7.80540847525 3.0 2.68150616134 
7.81507500403 3.0 3.11175026999 
7.80802357304 3.0 3.57412890321 
8.22135535278 3.0 4.55474965035 
8.18918890117 3.0 5.535981222 
8.17173729583 3.0 6.01402815139 
8.154553371 3.0 6.48935101218 
8.11959774124 3.0 6.97562421416 
2.03712676599 3.0 7.4240845364 
1.74872309363 3.0 6.87665921727 
1.8384531554 3.0 6.4002263314 
1.92084955626 3.0 6.054399519 
1.98417711083 3.0 5.65667848873 
2.00437514227 3.0 5.18500544293 
2.01748284513 3.0 4.70190610587 
2.04543807983 3.0 4.20410207231 
2.12052071628 3.0 3.73806247361 
2.11476027271 3.0 3.15609632452 
3.62750389443 3.0 8.02205973388 
2.98681094132 3.0 8.09838145514 
4.18805816308 3.0 8.00053869174 
4.71925679016 3.0 7.99014777834 
5.23942462988 3.0 7.98448655158 
5.76150774675 3.0 7.9746608058 
6.3309214191 3.0 7.9498783427 
6.91399134168 3.0 8.11202099008 
7.43505634506 3.0 7.69289838343 
2.5335517494 3.0 2.25398735676 
3.0388464991 3.0 2.20215957596 
3.53285850424 3.0 2.18674415018 
4.5371602585 3.0 1.77097905466 
5.03321871857 3.0 1.77712629758 
5.52983844013 3.0 1.78563607292 
6.02160725886 3.0 1.79689710633 
6.51186792888 3.0 1.81132108293 
7.00077532651 3.0 1.82916885397 
7.40225539611 3.0 2.26573179596 
1.50318898426 3.0 1.4519824119 
2.0051388749 3.0 1.41733408248 
2.51045491022 3.0 1.38341086399 
3.02347530329 3.0 1.36021275969 
3.52647338008 3.0 1.34267401114 
4.03468578515 3.0 1.34836534518 
4.53220816096 3.0 1.34634537231 
5.03126111957 3.0 1.35713003091 
5.52751699457 3.0 1.364022783 
6.0252283591 3.0 1.3762285604 
6.52494965614 3.0 1.39330248291 
7.02763175061 3.0 1.41580137882 
7.54181865586 3.0 1.45179432253 
8.03968399153 3.0 1.513290692 
8.53968398007 3.0 1.53484267705 
1.64004640727 3.0 8.42993141685 
2.17441795727 3.0 8.46876371462 
2.66497886892 3.0 8.55313216367 
2.99381712776 3.0 8.72202453847 
3.34214396956 3.0 8.54593987587 
3.80185727868 3.0 8.50384131429 
4.32142232695 3.0 8.48297631589 
4.8438389709 3.0 8.47812792984 
5.34899652813 3.0 8.47956819072 
5.86209198222 3.0 8.4700222649 
6.37055370333 3.0 8.480538234 
6.88453296842 3.0 8.51916882882 
7.43502619836 3.0 8.54569795316 
7.9577071572 3.0 8.52588543312 
8.46917485483 3.0 8.50468342042 
1.69992867011 3.0 7.88397749154 
1.41640124728 3.0 7.39559170101 
1.34990059697 3.0 6.89607961675 
1.39932198715 3.0 6.4289167561 
1.42056619372 3.0 5.98004549931 
1.4676587219 3.0 5.53529376074 
1.49862762839 3.0 5.07383551379 
1.52323328917 3.0 4.57820302322 
1.55698981068 3.0 4.05344044642 
1.6362912799 3.0 3.47537933482 
1.54903737512 3.0 2.91090342936 
1.51993582393 3.0 2.41278759304 
1.51061675304 3.0 1.933400087 
8.55377509293 3.0 2.03173144933 
8.61286708345 3.0 2.53303422671 
8.65160833275 3.0 3.05017974449 
8.6581831081 3.0 3.5525480394 
8.65661069762 3.0 4.05002513213 
8.64528712385 3.0 4.54797116906 
8.62871374918 3.0 5.04705567651 
8.61267011492 3.0 5.54343184409 
8.59373751417 3.0 6.03168757749 
8.56883715251 3.0 6.52216341493 
8.54719827984 3.0 7.0258994933 
8.49321669458 3.0 7.52032990472 
8.47348937951 3.0 8.01212171999 
2.02409241617 3.0 2.33362384117 
2.33614376529 3.0 7.99703296105 
7.96713489513 3.0 8.0404579009 
2.01437154981 3.0 1.87940654907 
8.02358769128 3.0 2.06711061474 
8.98847629729 3.0 9.4847415655 
1.72874139338 3.0 7.23529699016 
2.51696083907 3.0 1.82395022018 
3.02430030582 3.0 1.78586050391 
3.53228008175 3.0 1.76854055593 
7.49486288046 3.0 1.86651911802 
8.20506964632 3.0 2.59444190327 
8.23299949861 3.0 3.08605029348 
8.23138232808 3.0 3.57457960578 
7.45369234917 3.0 8.09424536387 
7.74055171878 3.0 2.3434219901 
2.26683224381 3.0 3.42000222032 
7.96374905885 3.0 7.51343040083 
7.80836414133 3.0 4.54876744704 
7.7942689275 3.0 5.04457348932 
7.76420307974 3.0 5.54189267719 
4.02991177872 3.0 2.1816224717 
5.52549155669 3.0 2.19709461978 
7.8066870679 3.0 4.06312621162 
4.51794211279 3.0 2.59697670924 
7.40090813909 3.5 3.53877687378 
7.40183633028 3.5 4.03822597026 
7.39859891198 3.5 4.52801976075 
7.39147853252 3.5 5.02385766874 
7.36711787986 3.5 5.51969662018 
7.3233616847 3.5 6.00210189765 
7.31283043428 3.5 6.48961569567 
2.46093996739 3.5 6.3590890539 
2.49231593136 3.5 5.83934135185 
2.50608171104 3.5 5.34174189264 
2.51273473686 3.5 4.85047427174 
2.52901690423 3.5 4.37507147986 
2.57482727085 3.5 3.92164137808 
2.5841021495 3.5 3.45288830251 
3.54491405784 3.5 7.53802241438 
4.07964066472 3.5 7.50771179724 
4.60992057866 3.5 7.49945476457 
5.11708064033 3.5 7.49453692571 
5.61967290399 3.5 7.487489668 
6.07223470109 3.5 7.44666980013 
6.51448861801 3.5 7.36388594662 
6.98887828831 3.5 7.33951814765 
3.0210126868 3.5 2.61412191126 
3.52425062808 3.5 2.59596847263 
4.02146321071 3.5 2.59405350605 
5.03124673517 3.5 2.1959269044 
5.01919351614 3.5 2.60127251883 
5.51520709271 3.5 2.60447919152 
6.01239611117 3.5 2.61862344568 
6.50837820785 3.5 2.63887710116 
1.00375609411 3.5 0.500953907768 
1.50032309458 3.5 0.488992088027 
2.00100806808 3.5 0.483372584463 
2.5020973052 3.5 0.470438473591 
3.00607481316 3.5 0.470924349999 
3.50729185331 3.5 0.459883152673 
4.01033126869 3.5 0.457570769051 
4.51070258109 3.5 0.464695813863 
5.01390685469 3.5 0.471632627543 
5.51329903603 3.5 0.46709510435 
6.01297963992 3.5 0.475022528313 
6.51341035579 3.5 0.474521581291 
7.01292049101 3.5 0.480628920068 
7.51580562356 3.5 0.488183849963 
8.01141242369 3.5 0.497838869679 
8.50345311851 3.5 0.503747733647 
9.00096477628 3.5 0.504254629904 
9.50020393179 3.5 0.502930214963 
0.512183549297 3.5 9.48507336737 
1.02227204849 3.5 9.4809203521 
1.51973475889 3.5 9.48517632128 
2.01492769242 3.5 9.49979369175 
2.5064879849 3.5 9.52312524799 
3.0013620086 3.5 9.53515692102 
3.49445322315 3.5 9.52922059145 
3.98360099726 3.5 9.50866735407 
4.47470657796 3.5 9.49503496646 
4.97440325193 3.5 9.49083196854 
5.47292240611 3.5 9.48961021372 
5.97291831485 3.5 9.49014976231 
6.47248132444 3.5 9.49338409983 
6.97255567661 3.5 9.4989534023 
7.47557008962 3.5 9.50235502066 
7.98457714605 3.5 9.49733154729 
8.48980411483 3.5 9.48880350874 
9.49066049577 3.5 9.48768780873 
0.536917235384 3.5 8.9709061066 
0.540705485306 3.5 8.47528350075 
0.534790605608 3.5 7.98387354628 
0.502867614708 3.5 7.49357251545 
0.476201838394 3.5 6.99237700991 
0.466872882451 3.5 6.48726415375 
0.4725043587 3.5 5.985072171 
0.485290958355 3.5 5.48761336992 
0.501248242557 3.5 4.98511852882 
0.513557159983 3.5 4.48236871322 
0.526811442587 3.5 3.97849915114 
0.527047216181 3.5 3.48105419497 
0.513802562373 3.5 2.98880788284 
0.504301325386 3.5 2.49416632101 
0.501909975451 3.5 1.99653260202 
0.504193114595 3.5 1.4989045882 
0.501613310461 3.5 0.999733303457 
0.50136956058 3.5 0.499629741858 
9.50289083304 3.5 1.00337465644 
9.51039235175 3.5 1.50432126743 
9.52445050143 3.5 2.00500804865 
9.53540839099 3.5 2.50895577799 
9.53832354331 3.5 3.01298817041 
9.53567576153 3.5 3.51129669346 
9.52926328341 3.5 4.01153983342 
9.53822862968 3.5 4.51477376976 
9.53499184322 3.5 5.01641239396 
9.52667524311 3.5 5.51601947169 
9.51569014864 3.5 6.01496878123 
9.50687575386 3.5 6.51465135861 
9.50356071498 3.5 7.01076593899 
9.49888049129 3.5 7.50770342763 
9.49151086127 3.5 8.00197556034 
9.48954707716 3.5 8.49660190625 
9.4888026213 3.5 8.99007797489 
6.99350093411 3.5 2.64267832893 
7.34111706602 3.5 6.93383747923 
2.52881738767 3.5 6.99947251363 
2.60312183389 3.5 3.04993119656 
7.39605958774 3.5 3.05279765942 
8.22680454215 3.5 4.06382309856 
8.20537618578 3.5 5.05418539026 
7.73848092427 3.5 6.00977098879 
7.73513100604 3.5 6.46070850205 
7.71938567358 3.5 6.88114791303 
2.14636551536 3.5 6.95037771282 
2.14016283079 3.5 6.55561853771 
3.0051896197 3.5 7.56937062409 
6.59603224661 3.5 7.66532577289 
6.97076680749 3.5 7.7180545898 
7.35436467203 3.5 7.29639431712 
2.58574146794 3.5 2.65376638989 
4.04039326718 3.5 1.7685171351 
4.53110191226 3.5 2.18965418362 
6.02788739851 3.5 2.21983704978 
6.50675577414 3.5 2.23197693842 
6.9669467469 3.5 2.23599333546 
1.00124082398 3.5 0.989509104327 
1.50134599475 3.5 0.973423496814 
2.0019734361 3.5 0.952534814388 
2.5076857151 3.5 0.936801236089 
3.01228578246 3.5 0.917073715316 
3.51874564932 3.5 0.907514775542 
4.02117426124 3.5 0.909889388155 
4.52137582658 3.5 0.907947540342 
5.02107466798 3.5 0.92060238169 
5.52111338117 3.5 0.927543305337 
6.02189041573 3.5 0.93300400192 
6.52427331192 3.5 0.942181343655 
7.02724762259 3.5 0.95497590822 
7.52777892253 3.5 0.975199894413 
8.02763365412 3.5 1.00015216436 
8.51664707798 3.5 1.01348015716 
9.00977401285 3.5 1.00961550763 
1.05541045348 3.5 8.96557501961 
1.57208548164 3.5 8.96304918955 
2.07245058186 3.5 8.98485902371 
2.5274626759 3.5 9.0496788817 
2.99946912365 3.5 9.08591913092 
3.46737552016 3.5 9.0566000074 
3.93180272256 3.5 9.00683292601 
4.42951676764 3.5 8.98646894975 
4.92894195543 3.5 8.98113910182 
5.42741091081 3.5 8.98113829502 
5.93010985532 3.5 8.98058143217 
6.42769927397 3.5 8.98969703593 
6.93332111285 3.5 9.00339211203 
7.44630052676 3.5 9.01174676536 
7.96156533131 3.5 9.00725900698 
8.47178904704 3.5 8.99499833766 
8.98133572854 3.5 8.98768860719 
1.09440933091 3.5 8.44868071818 
1.08274327508 3.5 7.96086323825 
0.998736549316 3.5 7.47241975519 
0.928189340573 3.5 6.96091582286 
0.93061703568 3.5 6.461960261 
0.945803945285 3.5 5.97691250746 
0.970924285277 3.5 5.48970219931 
0.997790595354 3.5 5.00470185 
1.02198116584 3.5 4.505495097 
1.05498264801 3.5 3.99013964377 
1.07113792044 3.5 3.4773498265 
1.03629054574 3.5 2.96621476913 
1.01666181032 3.5 2.46952032255 
1.00719075759 3.5 1.97585672996 
1.00546567054 3.5 1.48350171024 
9.02359742506 3.5 1.51281152144 
9.04365466521 3.5 2.01852387071 
9.06964650107 3.5 2.51844822287 
9.08217428528 3.5 3.02872174377 
9.08184771155 3.5 3.53150357324 
9.0860390603 3.5 4.03162208748 
9.0836002516 3.5 4.53236923564 
9.08162835601 3.5 5.03223858858 
9.06209271207 3.5 5.53029589984 
9.0478281122 3.5 6.0281164781 
9.03889949423 3.5 6.52469024597 
9.01765022138 3.5 7.02007139139 
8.999630986 3.5 7.51604225797 
8.98395754031 3.5 8.00750971049 
8.97987941259 3.5 8.49807657597 
7.39035541927 3.5 2.6682317975 
7.6395645714 3.5 7.20212298548 
2.4880017194 3.5 7.52341956913 
2.05095728082 3.5 2.77724084425 
7.80540847525 3.5 2.68150616134 
7.81507500403 3.5 3.11175026999 
7.80802357304 3.5 3.57412890321 
8.22135535278 3.5 4.55474965035 
8.18918890117 3.5 5.535981222 
8.17173729583 3.5 6.01402815139 
8.154553371 3.5 6.48935101218 
8.11959774124 3.5 6.97562421416 
2.03712676599 3.5 7.4240845364 
1.74872309363 3.5 6.87665921727 
1.8384531554 3.5 6.4002263314 
1.92084955626 3.5 6.054399519 
1.98417711083 3.5 5.65667848873 
2.00437514227 3.5 5.18500544293 
2.01748284513 3.5 4.70190610587 
2.04543807983 3.5 4.20410207231 
2.12052071628 3.5 3.73806247361 
2.11476027271 3.5 3.15609632452 
3.62750389443 3.5 8.02205973388 
2.98681094132 3.5 8.09838145514 
4.18805816308 3.5 8.00053869174 
4.71925679016 3.5 7.99014777834 
5.23942462988 3.5 7.98448655158 
5.76150774675 3.5 7.9746608058 
6.3309214191 3.5 7.9498783427 
6.91399134168 3.5 8.11202099008 
7.43505634506 3.5 7.69289838343 
2.5335517494 3.5 2.25398735676 
3.0388464991 3.5 2.20215957596 
3.53285850424 3.5 2.18674415018 
4.5371602585 3.5 1.77097905466 
5.03321871857 3.5 1.77712629758 
5.52983844013 3.5 1.78563607292 
6.02160725886 3.5 1.79689710633 
6.51186792888 3.5 1.81132108293 
7.00077532651 3.5 1.82916885397 
7.40225539611 3.5 2.26573179596 
1.50318898426 3.5 1.4519824119 
2.0051388749 3.5 1.41733408248 
2.51045491022 3.5 1.38341086399 
3.02347530329 3.5 1.36021275969 
3.52647338008 3.5 1.34267401114 
4.03468578515 3.5 1.34836534518 
4.53220816096 3.5 1.34634537231 
5.03126111957 3.5 1.35713003091 
5.52751699457 3.5 1.364022783 
6.0252283591 3.5 1.3762285604 
6.52494965614 3.5 1.39330248291 
7.02763175061 3.5 1.41580137882 
7.54181865586 3.5 1.45179432253 
8.03968399153 3.5 1.513290692 
8.53968398007 3.5 1.53484267705 
1.64004640727 3.5 8.42993141685 
2.17441795727 3.5 8.46876371462 
2.66497886892 3.5 8.55313216367 
2.99381712776 3.5 8.72202453847 
3.34214396956 3.5 8.54593987587 
3.80185727868 3.5 8.50384131429 
4.32142232695 3.5 8.48297631589 
4.8438389709 3.5 8.47812792984 
5.34899652813 3.5 8.47956819072 
5.86209198222 3.5 8.4700222649 
6.37055370333 3.5 8.480538234 
6.88453296842 3.5 8.51916882882 
7.43502619836 3.5 8.54569795316 
7.9577071572 3.5 8.52588543312 
8.46917485483 3.5 8.50468342042 
1.69992867011 3.5 7.88397749154 
1.41640124728 3.5 7.39559170101 
1.34990059697 3.5 6.89607961675 
1.39932198715 3.5 6.4289167561 
1.42056619372 3.5 5.98004549931 
1.4676587219 3.5 5.53529376074 
1.49862762839 3.5 5.07383551379 
1.52323328917 3.5 4.57820302322 
1.55698981068 3.5 4.05344044642 
1.6362912799 3.5 3.47537933482 
1.54903737512 3.5 2.91090342936 
1.51993582393 3.5 2.41278759304 
1.51061675304 3.5 1.933400087 
8.55377509293 3.5 2.03173144933 
8.61286708345 3.5 2.53303422671 
8.65160833275 3.5 3.05017974449 
8.6581831081 3.5 3.5525480394 
8.65661069762 3.5 4.05002513213 
8.64528712385 3.5 4.54797116906 
8.62871374918 3.5 5.04705567651 
8.61267011492 3.5 5.54343184409 
8.59373751417 3.5 6.03168757749 
8.56883715251 3.5 6.52216341493 
8.54719827984 3.5 7.0258994933 
8.49321669458 3.5 7.52032990472 
8.47348937951 3.5 8.01212171999 
2.02409241617 3.5 2.33362384117 
2.33614376529 3.5 7.99703296105 
7.96713489513 3.5 8.0404579009 
2.01437154981 3.5 1.87940654907 
8.02358769128 3.5 2.06711061474 
8.98847629729 3.5 9.4847415655 
1.72874139338 3.5 7.23529699016 
2.51696083907 3.5 1.82395022018 
3.02430030582 3.5 1.78586050391 
3.53228008175 3.5 1.76854055593 
7.49486288046 3.5 1.86651911802 
8.20506964632 3.5 2.59444190327 
8.23299949861 3.5 3.08605029348 
8.23138232808 3.5 3.57457960578 
7.45369234917 3.5 8.09424536387 
7.74055171878 3.5 2.3434219901 
2.26683224381 3.5 3.42000222032 
7.96374905885 3.5 7.51343040083 
7.80836414133 3.5 4.54876744704 
7.7942689275 3.5 5.04457348932 
7.76420307974 3.5 5.54189267719 
4.02991177872 3.5 2.1816224717 
5.52549155669 3.5 2.19709461978 
7.8066870679 3.5 4.06312621162 
4.51794211279 3.5 2.59697670924 
</DataArray>
</Points>
<Cells>
<DataArray type="Int64" Name="connectivity" format="ascii">
521 675 656 636 1691 1160 1307 1588 
1691 1160 1307 1588 2000 1159 1308 1569 
2000 1159 1308 1569 2309 1158 1309 1550 
2309 1158 1309 1550 2618 1157 1310 1531 
2618 1157 1310 1531 2927 1156 1311 1512 
2927 1156 1311 1512 3236 1155 1312 1493 
3236 1155 1312 1493 3545 1154 1313 1474 
3545 1154 1313 1474 96 1287 1306 1625 
539 618 677 696 1673 1606 1139 1100 
1673 1606 1139 1100 1982 1587 1140 1081 
1982 1587 1140 1081 2291 1568 1141 1062 
2291 1568 1141 1062 2600 1549 1142 1043 
2600 1549 1142 1043 2909 1530 1143 1024 
2909 1530 1143 1024 3218 1511 1144 1005 
3218 1511 1144 1005 3527 1492 1145 986 
3527 1492 1145 986 78 1607 1138 1119 
503 678 697 655 1709 1118 1152 1322 
1709 1118 1152 1322 2018 1099 1151 1323 
2018 1099 1151 1323 2327 1080 1150 1324 
2327 1080 1150 1324 2636 1061 1149 1325 
2636 1061 1149 1325 2945 1042 1148 1326 
2945 1042 1148 1326 3254 1023 1147 1327 
3254 1023 1147 1327 3563 1004 1146 1328 
3563 1004 1146 1328 114 1137 1153 1473 
503 556 679 678 1709 1656 1117 1118 
1709 1656 1117 1118 2018 1965 1098 1099 
2018 1965 1098 1099 2327 2274 1079 1080 
2327 2274 1079 1080 2636 2583 1060 1061 
2636 2583 1060 1061 2945 2892 1041 1042 
2945 2892 1041 1042 3254 3201 1022 1023 
3254 3201 1022 1023 3563 3510 1003 1004 
3563 3510 1003 1004 114 61 1136 1137 
556 555 680 679 1656 1657 1116 1117 
1656 1657 1116 1117 1965 1966 1097 1098 
1965 1966 1097 1098 2274 2275 1078 1079 
2274 2275 1078 1079 2583 2584 1059 1060 
2583 2584 1059 1060 2892 2893 1040 1041 
2892 2893 1040 1041 3201 3202 1021 1022 
3201 3202 1021 1022 3510 3511 1002 1003 
3510 3511 1002 1003 61 62 1135 1136 
555 554 681 680 1657 1658 1115 1116 
1657 1658 1115 1116 1966 1967 1096 1097 
1966 1967 1096 1097 2275 2276 1077 1078 
2275 2276 1077 1078 2584 2585 1058 1059 
2584 2585 1058 1059 2893 2894 1039 1040 
2893 2894 1039 1040 3202 3203 1020 1021 
3202 3203 1020 1021 3511 3512 1001 1002 
3511 3512 1001 1002 62 63 1134 1135 
554 553 682 681 1658 1659 1114 1115 
1658 1659 1114 1115 1967 1968 1095 1096 
1967 1968 1095 1096 2276 2277 1076 1077 
2276 2277 1076 1077 2585 2586 1057 1058 
2585 2586 1057 1058 2894 2895 1038 1039 
2894 2895 1038 1039 3203 3204 1019 1020 
3203 3204 1019 1020 3512 3513 1000 1001 
3512 3513 1000 1001 63 64 1133 1134 
553 552 683 682 1659 1660 1113 1114 
1659 1660 1113 1114 1968 1969 1094 1095 
1968 1969 1094 1095 2277 2278 1075 1076 
2277 2278 1075 1076 2586 2587 1056 1057 
2586 2587 1056 1057 2895 2896 1037 1038 
2895 2896 1037 1038 3204 3205 1018 1019 
3204 3205 1018 1019 3513 3514 999 1000 
3513 3514 999 1000 64 65 1132 1133 
552 551 684 683 1660 1661 1112 1113 
1660 1661 1112 1113 1969 1970 1093 1094 
1969 1970 1093 1094 2278 2279 1074 1075 
2278 2279 1074 1075 2587 2588 1055 1056 
2587 2588 1055 1056 2896 2897 1036 1037 
2896 2897 1036 1037 3205 3206 1017 1018 
3205 3206 1017 1018 3514 3515 998 999 
3514 3515 998 999 65 66 1131 1132 
551 550 685 684 1661 1662 1111 1112 
1661 1662 1111 1112 1970 1971 1092 1093 
1970 1971 1092 1093 2279 2280 1073 1074 
2279 2280 1073 1074 2588 2589 1054 1055 
2588 2589 1054 1055 2897 2898 1035 1036 
2897 2898 1035 1036 3206 3207 1016 1017 
3206 3207 1016 1017 3515 3516 997 998 
3515 3516 997 998 66 67 1130 1131 
550 549 686 685 1662 1663 1110 1111 
1662 1663 1110 1111 1971 1972 1091 1092 
1971 1972 1091 1092 2280 2281 1072 1073 
2280 2281 1072 1073 2589 2590 1053 1054 
2589 2590 1053 1054 2898 2899 1034 1035 
2898 2899 1034 1035 3207 3208 1015 1016 
3207 3208 1015 1016 3516 3517 996 997 
3516 3517 996 997 67 68 1129 1130 
549 548 687 686 1663 1664 1109 1110 
1663 1664 1109 1110 1972 1973 1090 1091 
1972 1973 1090 1091 2281 2282 1071 1072 
2281 2282 1071 1072 2590 2591 1052 1053 
2590 2591 1052 1053 2899 2900 1033 1034 
2899 2900 1033 1034 3208 3209 1014 1015 
3208 3209 1014 1015 3517 3518 995 996 
3517 3518 995 996 68 69 1128 1129 
548 547 688 687 1664 1665 1108 1109 
1664 1665 1108 1109 1973 1974 1089 1090 
1973 1974 1089 1090 2282 2283 1070 1071 
2282 2283 1070 1071 2591 2592 1051 1052 
2591 2592 1051 1052 2900 2901 1032 1033 
2900 2901 1032 1033 3209 3210 1013 1014 
3209 3210 1013 1014 3518 3519 994 995 
3518 3519 994 995 69 70 1127 1128 
547 546 689 688 1665 1666 1107 1108 
1665 1666 1107 1108 1974 1975 1088 1089 
1974 1975 1088 1089 2283 2284 1069 1070 
2283 2284 1069 1070 2592 2593 1050 1051 
2592 2593 1050 1051 2901 2902 1031 1032 
2901 2902 1031 1032 3210 3211 1012 1013 
3210 3211 1012 1013 3519 3520 993 994 
3519 3520 993 994 70 71 1126 1127 
546 545 690 689 1666 1667 1106 1107 
1666 1667 1106 1107 1975 1976 1087 1088 
1975 1976 1087 1088 2284 2285 1068 1069 
2284 2285 1068 1069 2593 2594 1049 1050 
2593 2594 1049 1050 2902 2903 1030 1031 
2902 2903 1030 1031 3211 3212 1011 1012 
3211 3212 1011 1012 3520 3521 992 993 
3520 3521 992 993 71 72 1125 1126 
545 544 691 690 1667 1668 1105 1106 
1667 1668 1105 1106 1976 1977 1086 1087 
1976 1977 1086 1087 2285 2286 1067 1068 
2285 2286 1067 1068 2594 2595 1048 1049 
2594 2595 1048 1049 2903 2904 1029 1030 
2903 2904 1029 1030 3212 3213 1010 1011 
3212 3213 1010 1011 3521 3522 991 992 
3521 3522 991 992 72 73 1124 1125 
544 543 692 691 1668 1669 1104 1105 
1668 1669 1104 1105 1977 1978 1085 1086 
1977 1978 1085 1086 2286 2287 1066 1067 
2286 2287 1066 1067 2595 2596 1047 1048 
2595 2596 1047 1048 2904 2905 1028 1029 
2904 2905 1028 1029 3213 3214 1009 1010 
3213 3214 1009 1010 3522 3523 990 991 
3522 3523 990 991 73 74 1123 1124 
543 542 693 692 1669 1670 1103 1104 
1669 1670 1103 1104 1978 1979 1084 1085 
1978 1979 1084 1085 2287 2288 1065 1066 
2287 2288 1065 1066 2596 2597 1046 1047 
2596 2597 1046 1047 2905 2906 1027 1028 
2905 2906 1027 1028 3214 3215 1008 1009 
3214 3215 1008 1009 3523 3524 989 990 
3523 3524 989 990 74 75 1122 1123 
542 541 694 693 1670 1671 1102 1103 
1670 1671 1102 1103 1979 1980 1083 1084 
1979 1980 1083 1084 2288 2289 1064 1065 
2288 2289 1064 1065 2597 2598 1045 1046 
2597 2598 1045 1046 2906 2907 1026 1027 
2906 2907 1026 1027 3215 3216 1007 1008 
3215 3216 1007 1008 3524 3525 988 989 
3524 3525 988 989 75 76 1121 1122 
541 540 695 694 1671 1672 1101 1102 
1671 1672 1101 1102 1980 1981 1082 1083 
1980 1981 1082 1083 2289 2290 1063 1064 
2289 2290 1063 1064 2598 2599 1044 1045 
2598 2599 1044 1045 2907 2908 1025 1026 
2907 2908 1025 1026 3216 3217 1006 1007 
3216 3217 1006 1007 3525 3526 987 988 
3525 3526 987 988 76 77 1120 1121 
540 539 696 695 1672 1673 1100 1101 
1672 1673 1100 1101 1981 1982 1081 1082 
1981 1982 1081 1082 2290 2291 1062 1063 
2290 2291 1062 1063 2599 2600 1043 1044 
2599 2600 1043 1044 2908 2909 1024 1025 
2908 2909 1024 1025 3217 3218 1005 1006 
3217 3218 1005 1006 3526 3527 986 987 
3526 3527 986 987 77 78 1119 1120 
539 502 619 618 1673 1710 1605 1606 
1673 1710 1605 1606 1982 2019 1586 1587 
1982 2019 1586 1587 2291 2328 1567 1568 
2291 2328 1567 1568 2600 2637 1548 1549 
2600 2637 1548 1549 2909 2946 1529 1530 
2909 2946 1529 1530 3218 3255 1510 1511 
3218 3255 1510 1511 3527 3564 1491 1492 
3527 3564 1491 1492 78 115 1608 1607 
502 501 620 619 1710 1711 1604 1605 
1710 1711 1604 1605 2019 2020 1585 1586 
2019 2020 1585 1586 2328 2329 1566 1567 
2328 2329 1566 1567 2637 2638 1547 1548 
2637 2638 1547 1548 2946 2947 1528 1529 
2946 2947 1528 1529 3255 3256 1509 1510 
3255 3256 1509 1510 3564 3565 1490 1491 
3564 3565 1490 1491 115 116 1609 1608 
501 500 621 620 1711 1712 1603 1604 
1711 1712 1603 1604 2020 2021 1584 1585 
2020 2021 1584 1585 2329 2330 1565 1566 
2329 2330 1565 1566 2638 2639 1546 1547 
2638 2639 1546 1547 2947 2948 1527 1528 
2947 2948 1527 1528 3256 3257 1508 1509 
3256 3257 1508 1509 3565 3566 1489 1490 
3565 3566 1489 1490 116 117 1610 1609 
500 499 622 621 1712 1713 1602 1603 
1712 1713 1602 1603 2021 2022 1583 1584 
2021 2022 1583 1584 2330 2331 1564 1565 
2330 2331 1564 1565 2639 2640 1545 1546 
2639 2640 1545 1546 2948 2949 1526 1527 
2948 2949 1526 1527 3257 3258 1507 1508 
3257 3258 1507 1508 3566 3567 1488 1489 
3566 3567 1488 1489 117 118 1611 1610 
499 498 623 622 1713 1714 1601 1602 
1713 1714 1601 1602 2022 2023 1582 1583 
2022 2023 1582 1583 2331 2332 1563 1564 
2331 2332 1563 1564 2640 2641 1544 1545 
2640 2641 1544 1545 2949 2950 1525 1526 
2949 2950 1525 1526 3258 3259 1506 1507 
3258 3259 1506 1507 3567 3568 1487 1488 
3567 3568 1487 1488 118 119 1612 1611 
498 497 624 623 1714 1715 1600 1601 
1714 1715 1600 1601 2023 2024 1581 1582 
2023 2024 1581 1582 2332 2333 1562 1563 
2332 2333 1562 1563 2641 2642 1543 1544 
2641 2642 1543 1544 2950 2951 1524 1525 
2950 2951 1524 1525 3259 3260 1505 1506 
3259 3260 1505 1506 3568 3569 1486 1487 
3568 3569 1486 1487 119 120 1613 1612 
497 496 625 624 1715 1716 1599 1600 
1715 1716 1599 1600 2024 2025 1580 1581 
2024 2025 1580 1581 2333 2334 1561 1562 
2333 2334 1561 1562 2642 2643 1542 1543 
2642 2643 1542 1543 2951 2952 1523 1524 
2951 2952 1523 1524 3260 3261 1504 1505 
3260 3261 1504 1505 3569 3570 1485 1486 
3569 3570 1485 1486 120 121 1614 1613 
496 495 626 625 1716 1717 1598 1599 
1716 1717 1598 1599 2025 2026 1579 1580 
2025 2026 1579 1580 2334 2335 1560 1561 
2334 2335 1560 1561 2643 2644 1541 1542 
2643 2644 1541 1542 2952 2953 1522 1523 
2952 2953 1522 1523 3261 3262 1503 1504 
3261 3262 1503 1504 3570 3571 1484 1485 
3570 3571 1484 1485 121 122 1615 1614 
495 494 627 626 1717 1718 1597 1598 
1717 1718 1597 1598 2026 2027 1578 1579 
2026 2027 1578 1579 2335 2336 1559 1560 
2335 2336 1559 1560 2644 2645 1540 1541 
2644 2645 1540 1541 2953 2954 1521 1522 
2953 2954 1521 1522 3262 3263 1502 1503 
3262 3263 1502 1503 3571 3572 1483 1484 
3571 3572 1483 1484 122 123 1616 1615 
494 493 628 627 1718 1719 1596 1597 
1718 1719 1596 1597 2027 2028 1577 1578 
2027 2028 1577 1578 2336 2337 1558 1559 
2336 2337 1558 1559 2645 2646 1539 1540 
2645 2646 1539 1540 2954 2955 1520 1521 
2954 2955 1520 1521 3263 3264 1501 1502 
3263 3264 1501 1502 3572 3573 1482 1483 
3572 3573 1482 1483 123 124 1617 1616 
493 492 629 628 1719 1720 1595 1596 
1719 1720 1595 1596 2028 2029 1576 1577 
2028 2029 1576 1577 2337 2338 1557 1558 
2337 2338 1557 1558 2646 2647 1538 1539 
2646 2647 1538 1539 2955 2956 1519 1520 
2955 2956 1519 1520 3264 3265 1500 1501 
3264 3265 1500 1501 3573 3574 1481 1482 
3573 3574 1481 1482 124 125 1618 1617 
492 491 630 629 1720 1721 1594 1595 
1720 1721 1594 1595 2029 2030 1575 1576 
2029 2030 1575 1576 2338 2339 1556 1557 
2338 2339 1556 1557 2647 2648 1537 1538 
2647 2648 1537 1538 2956 2957 1518 1519 
2956 2957 1518 1519 3265 3266 1499 1500 
3265 3266 1499 1500 3574 3575 1480 1481 
3574 3575 1480 1481 125 126 1619 1618 
491 490 631 630 1721 1722 1593 1594 
1721 1722 1593 1594 2030 2031 1574 1575 
2030 2031 1574 1575 2339 2340 1555 1556 
2339 2340 1555 1556 2648 2649 1536 1537 
2648 2649 1536 1537 2957 2958 1517 1518 
2957 2958 1517 1518 3266 3267 1498 1499 
3266 3267 1498 1499 3575 3576 1479 1480 
3575 3576 1479 1480 126 127 1620 1619 
490 489 632 631 1722 1723 1592 1593 
1722 1723 1592 1593 2031 2032 1573 1574 
2031 2032 1573 1574 2340 2341 1554 1555 
2340 2341 1554 1555 2649 2650 1535 1536 
2649 2650 1535 1536 2958 2959 1516 1517 
2958 2959 1516 1517 3267 3268 1497 1498 
3267 3268 1497 1498 3576 3577 1478 1479 
3576 3577 1478 1479 127 128 1621 1620 
489 488 633 632 1723 1724 1591 1592 
1723 1724 1591 1592 2032 2033 1572 1573 
2032 2033 1572 1573 2341 2342 1553 1554 
2341 2342 1553 1554 2650 2651 1534 1535 
2650 2651 1534 1535 2959 2960 1515 1516 
2959 2960 1515 1516 3268 3269 1496 1497 
3268 3269 1496 1497 3577 3578 1477 1478 
3577 3578 1477 1478 128 129 1622 1621 
488 487 634 633 1724 1725 1590 1591 
1724 1725 1590 1591 2033 2034 1571 1572 
2033 2034 1571 1572 2342 2343 1552 1553 
2342 2343 1552 1553 2651 2652 1533 1534 
2651 2652 1533 1534 2960 2961 1514 1515 
2960 2961 1514 1515 3269 3270 1495 1496 
3269 3270 1495 1496 3578 3579 1476 1477 
3578 3579 1476 1477 129 130 1623 1622 
487 486 635 634 1725 1726 1589 1590 
1725 1726 1589 1590 2034 2035 1570 1571 
2034 2035 1570 1571 2343 2344 1551 1552 
2343 2344 1551 1552 2652 2653 1532 1533 
2652 2653 1532 1533 2961 2962 1513 1514 
2961 2962 1513 1514 3270 3271 1494 1495 
3270 3271 1494 1495 3579 3580 1475 1476 
3579 3580 1475 1476 130 131 1624 1623 
486 521 636 635 1726 1691 1588 1589 
1726 1691 1588 1589 2035 2000 1569 1570 
2035 2000 1569 1570 2344 2309 1550 1551 
2344 2309 1550 1551 2653 2618 1531 1532 
2653 2618 1531 1532 2962 2927 1512 1513 
2962 2927 1512 1513 3271 3236 1493 1494 
3271 3236 1493 1494 3580 3545 1474 1475 
3580 3545 1474 1475 131 96 1625 1624 
521 577 674 675 1691 1915 1167 1160 
1691 1915 1167 1160 2000 2224 1166 1159 
2000 2224 1166 1159 2309 2533 1165 1158 
2309 2533 1165 1158 2618 2842 1164 1157 
2618 2842 1164 1157 2927 3151 1163 1156 
2927 3151 1163 1156 3236 3460 1162 1155 
3236 3460 1162 1155 3545 3769 1161 1154 
3545 3769 1161 1154 96 40 1288 1287 
577 522 673 674 1915 1690 1174 1167 
1915 1690 1174 1167 2224 1999 1173 1166 
2224 1999 1173 1166 2533 2308 1172 1165 
2533 2308 1172 1165 2842 2617 1171 1164 
2842 2617 1171 1164 3151 2926 1170 1163 
3151 2926 1170 1163 3460 3235 1169 1162 
3460 3235 1169 1162 3769 3544 1168 1161 
3769 3544 1168 1161 40 95 1289 1288 
522 523 672 673 1690 1689 1181 1174 
1690 1689 1181 1174 1999 1998 1180 1173 
1999 1998 1180 1173 2308 2307 1179 1172 
2308 2307 1179 1172 2617 2616 1178 1171 
2617 2616 1178 1171 2926 2925 1177 1170 
2926 2925 1177 1170 3235 3234 1176 1169 
3235 3234 1176 1169 3544 3543 1175 1168 
3544 3543 1175 1168 95 94 1290 1289 
523 524 671 672 1689 1688 1188 1181 
1689 1688 1188 1181 1998 1997 1187 1180 
1998 1997 1187 1180 2307 2306 1186 1179 
2307 2306 1186 1179 2616 2615 1185 1178 
2616 2615 1185 1178 2925 2924 1184 1177 
2925 2924 1184 1177 3234 3233 1183 1176 
3234 3233 1183 1176 3543 3542 1182 1175 
3543 3542 1182 1175 94 93 1291 1290 
524 525 670 671 1688 1687 1195 1188 
1688 1687 1195 1188 1997 1996 1194 1187 
1997 1996 1194 1187 2306 2305 1193 1186 
2306 2305 1193 1186 2615 2614 1192 1185 
2615 2614 1192 1185 2924 2923 1191 1184 
2924 2923 1191 1184 3233 3232 1190 1183 
3233 3232 1190 1183 3542 3541 1189 1182 
3542 3541 1189 1182 93 92 1292 1291 
525 526 669 670 1687 1686 1202 1195 
1687 1686 1202 1195 1996 1995 1201 1194 
1996 1995 1201 1194 2305 2304 1200 1193 
2305 2304 1200 1193 2614 2613 1199 1192 
2614 2613 1199 1192 2923 2922 1198 1191 
2923 2922 1198 1191 3232 3231 1197 1190 
3232 3231 1197 1190 3541 3540 1196 1189 
3541 3540 1196 1189 92 91 1293 1292 
526 527 668 669 1686 1685 1209 1202 
1686 1685 1209 1202 1995 1994 1208 1201 
1995 1994 1208 1201 2304 2303 1207 1200 
2304 2303 1207 1200 2613 2612 1206 1199 
2613 2612 1206 1199 2922 2921 1205 1198 
2922 2921 1205 1198 3231 3230 1204 1197 
3231 3230 1204 1197 3540 3539 1203 1196 
3540 3539 1203 1196 91 90 1294 1293 
527 528 667 668 1685 1684 1216 1209 
1685 1684 1216 1209 1994 1993 1215 1208 
1994 1993 1215 1208 2303 2302 1214 1207 
2303 2302 1214 1207 2612 2611 1213 1206 
2612 2611 1213 1206 2921 2920 1212 1205 
2921 2920 1212 1205 3230 3229 1211 1204 
3230 3229 1211 1204 3539 3538 1210 1203 
3539 3538 1210 1203 90 89 1295 1294 
528 529 666 667 1684 1683 1223 1216 
1684 1683 1223 1216 1993 1992 1222 1215 
1993 1992 1222 1215 2302 2301 1221 1214 
2302 2301 1221 1214 2611 2610 1220 1213 
2611 2610 1220 1213 2920 2919 1219 1212 
2920 2919 1219 1212 3229 3228 1218 1211 
3229 3228 1218 1211 3538 3537 1217 1210 
3538 3537 1217 1210 89 88 1296 1295 
529 530 665 666 1683 1682 1230 1223 
1683 1682 1230 1223 1992 1991 1229 1222 
1992 1991 1229 1222 2301 2300 1228 1221 
2301 2300 1228 1221 2610 2609 1227 1220 
2610 2609 1227 1220 2919 2918 1226 1219 
2919 2918 1226 1219 3228 3227 1225 1218 
3228 3227 1225 1218 3537 3536 1224 1217 
3537 3536 1224 1217 88 87 1297 1296 
530 531 664 665 1682 1681 1237 1230 
1682 1681 1237 1230 1991 1990 1236 1229 
1991 1990 1236 1229 2300 2299 1235 1228 
2300 2299 1235 1228 2609 2608 1234 1227 
2609 2608 1234 1227 2918 2917 1233 1226 
2918 2917 1233 1226 3227 3226 1232 1225 
3227 3226 1232 1225 3536 3535 1231 1224 
3536 3535 1231 1224 87 86 1298 1297 
531 532 663 664 1681 1680 1244 1237 
1681 1680 1244 1237 1990 1989 1243 1236 
1990 1989 1243 1236 2299 2298 1242 1235 
2299 2298 1242 1235 2608 2607 1241 1234 
2608 2607 1241 1234 2917 2916 1240 1233 
2917 2916 1240 1233 3226 3225 1239 1232 
3226 3225 1239 1232 3535 3534 1238 1231 
3535 3534 1238 1231 86 85 1299 1298 
532 533 662 663 1680 1679 1251 1244 
1680 1679 1251 1244 1989 1988 1250 1243 
1989 1988 1250 1243 2298 2297 1249 1242 
2298 2297 1249 1242 2607 2606 1248 1241 
2607 2606 1248 1241 2916 2915 1247 1240 
2916 2915 1247 1240 3225 3224 1246 1239 
3225 3224 1246 1239 3534 3533 1245 1238 
3534 3533 1245 1238 85 84 1300 1299 
533 534 661 662 1679 1678 1258 1251 
1679 1678 1258 1251 1988 1987 1257 1250 
1988 1987 1257 1250 2297 2296 1256 1249 
2297 2296 1256 1249 2606 2605 1255 1248 
2606 2605 1255 1248 2915 2914 1254 1247 
2915 2914 1254 1247 3224 3223 1253 1246 
3224 3223 1253 1246 3533 3532 1252 1245 
3533 3532 1252 1245 84 83 1301 1300 
534 535 660 661 1678 1677 1265 1258 
1678 1677 1265 1258 1987 1986 1264 1257 
1987 1986 1264 1257 2296 2295 1263 1256 
2296 2295 1263 1256 2605 2604 1262 1255 
2605 2604 1262 1255 2914 2913 1261 1254 
2914 2913 1261 1254 3223 3222 1260 1253 
3223 3222 1260 1253 3532 3531 1259 1252 
3532 3531 1259 1252 83 82 1302 1301 
535 536 659 660 1677 1676 1272 1265 
1677 1676 1272 1265 1986 1985 1271 1264 
1986 1985 1271 1264 2295 2294 1270 1263 
2295 2294 1270 1263 2604 2603 1269 1262 
2604 2603 1269 1262 2913 2912 1268 1261 
2913 2912 1268 1261 3222 3221 1267 1260 
3222 3221 1267 1260 3531 3530 1266 1259 
3531 3530 1266 1259 82 81 1303 1302 
536 537 658 659 1676 1675 1279 1272 
1676 1675 1279 1272 1985 1984 1278 1271 
1985 1984 1278 1271 2294 2293 1277 1270 
2294 2293 1277 1270 2603 2602 1276 1269 
2603 2602 1276 1269 2912 2911 1275 1268 
2912 2911 1275 1268 3221 3220 1274 1267 
3221 3220 1274 1267 3530 3529 1273 1266 
3530 3529 1273 1266 81 80 1304 1303 
537 538 657 658 1675 1674 1286 1279 
1675 1674 1286 1279 1984 1983 1285 1278 
1984 1983 1285 1278 2293 2292 1284 1277 
2293 2292 1284 1277 2602 2601 1283 1276 
2602 2601 1283 1276 2911 2910 1282 1275 
2911 2910 1282 1275 3220 3219 1281 1274 
3220 3219 1281 1274 3529 3528 1280 1273 
3529 3528 1280 1273 80 79 1305 1304 
538 637 676 657 1674 1448 1320 1286 
1674 1448 1320 1286 1983 1449 1319 1285 
1983 1449 1319 1285 2292 1450 1318 1284 
2292 1450 1318 1284 2601 1451 1317 1283 
2601 1451 1317 1283 2910 1452 1316 1282 
2910 1452 1316 1282 3219 1453 1315 1281 
3219 1453 1315 1281 3528 1454 1314 1280 
3528 1454 1314 1280 79 1455 1321 1305 
538 520 638 637 1674 1692 1441 1448 
1674 1692 1441 1448 1983 2001 1442 1449 
1983 2001 1442 1449 2292 2310 1443 1450 
2292 2310 1443 1450 2601 2619 1444 1451 
2601 2619 1444 1451 2910 2928 1445 1452 
2910 2928 1445 1452 3219 3237 1446 1453 
3219 3237 1446 1453 3528 3546 1447 1454 
3528 3546 1447 1454 79 97 1456 1455 
520 519 639 638 1692 1693 1434 1441 
1692 1693 1434 1441 2001 2002 1435 1442 
2001 2002 1435 1442 2310 2311 1436 1443 
2310 2311 1436 1443 2619 2620 1437 1444 
2619 2620 1437 1444 2928 2929 1438 1445 
2928 2929 1438 1445 3237 3238 1439 1446 
3237 3238 1439 1446 3546 3547 1440 1447 
3546 3547 1440 1447 97 98 1457 1456 
519 518 640 639 1693 1694 1427 1434 
1693 1694 1427 1434 2002 2003 1428 1435 
2002 2003 1428 1435 2311 2312 1429 1436 
2311 2312 1429 1436 2620 2621 1430 1437 
2620 2621 1430 1437 2929 2930 1431 1438 
2929 2930 1431 1438 3238 3239 1432 1439 
3238 3239 1432 1439 3547 3548 1433 1440 
3547 3548 1433 1440 98 99 1458 1457 
518 517 641 640 1694 1695 1420 1427 
1694 1695 1420 1427 2003 2004 1421 1428 
2003 2004 1421 1428 2312 2313 1422 1429 
2312 2313 1422 1429 2621 2622 1423 1430 
2621 2622 1423 1430 2930 2931 1424 1431 
2930 2931 1424 1431 3239 3240 1425 1432 
3239 3240 1425 1432 3548 3549 1426 1433 
3548 3549 1426 1433 99 100 1459 1458 
517 516 642 641 1695 1696 1413 1420 
1695 1696 1413 1420 2004 2005 1414 1421 
2004 2005 1414 1421 2313 2314 1415 1422 
2313 2314 1415 1422 2622 2623 1416 1423 
2622 2623 1416 1423 2931 2932 1417 1424 
2931 2932 1417 1424 3240 3241 1418 1425 
3240 3241 1418 1425 3549 3550 1419 1426 
3549 3550 1419 1426 100 101 1460 1459 
516 515 643 642 1696 1697 1406 1413 
1696 1697 1406 1413 2005 2006 1407 1414 
2005 2006 1407 1414 2314 2315 1408 1415 
2314 2315 1408 1415 2623 2624 1409 1416 
2623 2624 1409 1416 2932 2933 1410 1417 
2932 2933 1410 1417 3241 3242 1411 1418 
3241 3242 1411 1418 3550 3551 1412 1419 
3550 3551 1412 1419 101 102 1461 1460 
515 514 644 643 1697 1698 1399 1406 
1697 1698 1399 1406 2006 2007 1400 1407 
2006 2007 1400 1407 2315 2316 1401 1408 
2315 2316 1401 1408 2624 2625 1402 1409 
2624 2625 1402 1409 2933 2934 1403 1410 
2933 2934 1403 1410 3242 3243 1404 1411 
3242 3243 1404 1411 3551 3552 1405 1412 
3551 3552 1405 1412 102 103 1462 1461 
514 513 645 644 1698 1699 1392 1399 
1698 1699 1392 1399 2007 2008 1393 1400 
2007 2008 1393 1400 2316 2317 1394 1401 
2316 2317 1394 1401 2625 2626 1395 1402 
2625 2626 1395 1402 2934 2935 1396 1403 
2934 2935 1396 1403 3243 3244 1397 1404 
3243 3244 1397 1404 3552 3553 1398 1405 
3552 3553 1398 1405 103 104 1463 1462 
513 512 646 645 1699 1700 1385 1392 
1699 1700 1385 1392 2008 2009 1386 1393 
2008 2009 1386 1393 2317 2318 1387 1394 
2317 2318 1387 1394 2626 2627 1388 1395 
2626 2627 1388 1395 2935 2936 1389 1396 
2935 2936 1389 1396 3244 3245 1390 1397 
3244 3245 1390 1397 3553 3554 1391 1398 
3553 3554 1391 1398 104 105 1464 1463 
512 511 647 646 1700 1701 1378 1385 
1700 1701 1378 1385 2009 2010 1379 1386 
2009 2010 1379 1386 2318 2319 1380 1387 
2318 2319 1380 1387 2627 2628 1381 1388 
2627 2628 1381 1388 2936 2937 1382 1389 
2936 2937 1382 1389 3245 3246 1383 1390 
3245 3246 1383 1390 3554 3555 1384 1391 
3554 3555 1384 1391 105 106 1465 1464 
511 510 648 647 1701 1702 1371 1378 
1701 1702 1371 1378 2010 2011 1372 1379 
2010 2011 1372 1379 2319 2320 1373 1380 
2319 2320 1373 1380 2628 2629 1374 1381 
2628 2629 1374 1381 2937 2938 1375 1382 
2937 2938 1375 1382 3246 3247 1376 1383 
3246 3247 1376 1383 3555 3556 1377 1384 
3555 3556 1377 1384 106 107 1466 1465 
510 509 649 648 1702 1703 1364 1371 
1702 1703 1364 1371 2011 2012 1365 1372 
2011 2012 1365 1372 2320 2321 1366 1373 
2320 2321 1366 1373 2629 2630 1367 1374 
2629 2630 1367 1374 2938 2939 1368 1375 
2938 2939 1368 1375 3247 3248 1369 1376 
3247 3248 1369 1376 3556 3557 1370 1377 
3556 3557 1370 1377 107 108 1467 1466 
509 508 650 649 1703 1704 1357 1364 
1703 1704 1357 1364 2012 2013 1358 1365 
2012 2013 1358 1365 2321 2322 1359 1366 
2321 2322 1359 1366 2630 2631 1360 1367 
2630 2631 1360 1367 2939 2940 1361 1368 
2939 2940 1361 1368 3248 3249 1362 1369 
3248 3249 1362 1369 3557 3558 1363 1370 
3557 3558 1363 1370 108 109 1468 1467 
508 507 651 650 1704 1705 1350 1357 
1704 1705 1350 1357 2013 2014 1351 1358 
2013 2014 1351 1358 2322 2323 1352 1359 
2322 2323 1352 1359 2631 2632 1353 1360 
2631 2632 1353 1360 2940 2941 1354 1361 
2940 2941 1354 1361 3249 3250 1355 1362 
3249 3250 1355 1362 3558 3559 1356 1363 
3558 3559 1356 1363 109 110 1469 1468 
507 506 652 651 1705 1706 1343 1350 
1705 1706 1343 1350 2014 2015 1344 1351 
2014 2015 1344 1351 2323 2324 1345 1352 
2323 2324 1345 1352 2632 2633 1346 1353 
2632 2633 1346 1353 2941 2942 1347 1354 
2941 2942 1347 1354 3250 3251 1348 1355 
3250 3251 1348 1355 3559 3560 1349 1356 
3559 3560 1349 1356 110 111 1470 1469 
506 505 653 652 1706 1707 1336 1343 
1706 1707 1336 1343 2015 2016 1337 1344 
2015 2016 1337 1344 2324 2325 1338 1345 
2324 2325 1338 1345 2633 2634 1339 1346 
2633 2634 1339 1346 2942 2943 1340 1347 
2942 2943 1340 1347 3251 3252 1341 1348 
3251 3252 1341 1348 3560 3561 1342 1349 
3560 3561 1342 1349 111 112 1471 1470 
505 504 654 653 1707 1708 1329 1336 
1707 1708 1329 1336 2016 2017 1330 1337 
2016 2017 1330 1337 2325 2326 1331 1338 
2325 2326 1331 1338 2634 2635 1332 1339 
2634 2635 1332 1339 2943 2944 1333 1340 
2943 2944 1333 1340 3252 3253 1334 1341 
3252 3253 1334 1341 3561 3562 1335 1342 
3561 3562 1335 1342 112 113 1472 1471 
504 503 655 654 1708 1709 1322 1329 
1708 1709 1322 1329 2017 2018 1323 1330 
2017 2018 1323 1330 2326 2327 1324 1331 
2326 2327 1324 1331 2635 2636 1325 1332 
2635 2636 1325 1332 2944 2945 1326 1333 
2944 2945 1326 1333 3253 3254 1327 1334 
3253 3254 1327 1334 3562 3563 1328 1335 
3562 3563 1328 1335 113 114 1473 1472 
576 481 729 722 1626 1731 787 778 
1626 1731 787 778 1935 2040 788 771 
1935 2040 788 771 2244 2349 789 764 
2244 2349 789 764 2553 2658 790 757 
2553 2658 790 757 2862 2967 791 750 
2862 2967 791 750 3171 3276 792 743 
3171 3276 792 743 3480 3585 793 736 
3480 3585 793 736 41 136 786 779 
590 576 722 723 1627 1626 778 777 
1627 1626 778 777 1936 1935 771 770 
1936 1935 771 770 2245 2244 764 763 
2245 2244 764 763 2554 2553 757 756 
2554 2553 757 756 2863 2862 750 749 
2863 2862 750 749 3172 3171 743 742 
3172 3171 743 742 3481 3480 736 735 
3481 3480 736 735 27 41 779 780 
591 590 723 724 1628 1627 777 776 
1628 1627 777 776 1937 1936 770 769 
1937 1936 770 769 2246 2245 763 762 
2246 2245 763 762 2555 2554 756 755 
2555 2554 756 755 2864 2863 749 748 
2864 2863 749 748 3173 3172 742 741 
3173 3172 742 741 3482 3481 735 734 
3482 3481 735 734 26 27 780 781 
592 591 724 725 1629 1628 776 775 
1629 1628 776 775 1938 1937 769 768 
1938 1937 769 768 2247 2246 762 761 
2247 2246 762 761 2556 2555 755 754 
2556 2555 755 754 2865 2864 748 747 
2865 2864 748 747 3174 3173 741 740 
3174 3173 741 740 3483 3482 734 733 
3483 3482 734 733 25 26 781 782 
593 592 725 726 1630 1629 775 774 
1630 1629 775 774 1939 1938 768 767 
1939 1938 768 767 2248 2247 761 760 
2248 2247 761 760 2557 2556 754 753 
2557 2556 754 753 2866 2865 747 746 
2866 2865 747 746 3175 3174 740 739 
3175 3174 740 739 3484 3483 733 732 
3484 3483 733 732 24 25 782 783 
594 593 726 727 1631 1630 774 773 
1631 1630 774 773 1940 1939 767 766 
1940 1939 767 766 2249 2248 760 759 
2249 2248 760 759 2558 2557 753 752 
2558 2557 753 752 2867 2866 746 745 
2867 2866 746 745 3176 3175 739 738 
3176 3175 739 738 3485 3484 732 731 
3485 3484 732 731 23 24 783 784 
575 594 727 728 1632 1631 773 772 
1632 1631 773 772 1941 1940 766 765 
1941 1940 766 765 2250 2249 759 758 
2250 2249 759 758 2559 2558 752 751 
2559 2558 752 751 2868 2867 745 744 
2868 2867 745 744 3177 3176 738 737 
3177 3176 738 737 3486 3485 731 730 
3486 3485 731 730 42 23 784 785 
484 575 728 721 1728 1632 772 795 
1728 1632 772 795 2037 1941 765 796 
2037 1941 765 796 2346 2250 758 797 
2346 2250 758 797 2655 2559 751 798 
2655 2559 751 798 2964 2868 744 799 
2964 2868 744 799 3273 3177 737 800 
3273 3177 737 800 3582 3486 730 801 
3582 3486 730 801 133 42 785 794 
561 560 721 711 1646 1647 795 880 
1646 1647 795 880 1955 1956 796 879 
1955 1956 796 879 2264 2265 797 878 
2264 2265 797 878 2573 2574 798 877 
2573 2574 798 877 2882 2883 799 876 
2882 2883 799 876 3191 3192 800 875 
3191 3192 800 875 3500 3501 801 874 
3500 3501 801 874 56 57 794 923 
562 561 711 710 1645 1646 880 887 
1645 1646 880 887 1954 1955 879 886 
1954 1955 879 886 2263 2264 878 885 
2263 2264 878 885 2572 2573 877 884 
2572 2573 877 884 2881 2882 876 883 
2881 2882 876 883 3190 3191 875 882 
3190 3191 875 882 3499 3500 874 881 
3499 3500 874 881 55 56 923 924 
563 562 710 709 1644 1645 887 894 
1644 1645 887 894 1953 1954 886 893 
1953 1954 886 893 2262 2263 885 892 
2262 2263 885 892 2571 2572 884 891 
2571 2572 884 891 2880 2881 883 890 
2880 2881 883 890 3189 3190 882 889 
3189 3190 882 889 3498 3499 881 888 
3498 3499 881 888 54 55 924 925 
564 563 709 708 1643 1644 894 901 
1643 1644 894 901 1952 1953 893 900 
1952 1953 893 900 2261 2262 892 899 
2261 2262 892 899 2570 2571 891 898 
2570 2571 891 898 2879 2880 890 897 
2879 2880 890 897 3188 3189 889 896 
3188 3189 889 896 3497 3498 888 895 
3497 3498 888 895 53 54 925 926 
565 564 708 707 1642 1643 901 908 
1642 1643 901 908 1951 1952 900 907 
1951 1952 900 907 2260 2261 899 906 
2260 2261 899 906 2569 2570 898 905 
2569 2570 898 905 2878 2879 897 904 
2878 2879 897 904 3187 3188 896 903 
3187 3188 896 903 3496 3497 895 902 
3496 3497 895 902 52 53 926 927 
566 565 707 706 1641 1642 908 915 
1641 1642 908 915 1950 1951 907 914 
1950 1951 907 914 2259 2260 906 913 
2259 2260 906 913 2568 2569 905 912 
2568 2569 905 912 2877 2878 904 911 
2877 2878 904 911 3186 3187 903 910 
3186 3187 903 910 3495 3496 902 909 
3495 3496 902 909 51 52 927 928 
567 566 706 705 1640 1641 915 922 
1640 1641 915 922 1949 1950 914 921 
1949 1950 914 921 2258 2259 913 920 
2258 2259 913 920 2567 2568 912 919 
2567 2568 912 919 2876 2877 911 918 
2876 2877 911 918 3185 3186 910 917 
3185 3186 910 917 3494 3495 909 916 
3494 3495 909 916 50 51 928 929 
476 567 705 720 1739 1640 922 872 
1739 1640 922 872 2048 1949 921 871 
2048 1949 921 871 2357 2258 920 870 
2357 2258 920 870 2666 2567 919 869 
2666 2567 919 869 2975 2876 918 868 
2975 2876 918 868 3284 3185 917 867 
3284 3185 917 867 3593 3494 916 866 
3593 3494 916 866 141 50 929 873 
574 483 720 713 1633 1729 872 802 
1633 1729 872 802 1942 2038 871 809 
1942 2038 871 809 2251 2347 870 816 
2251 2347 870 816 2560 2656 869 823 
2560 2656 869 823 2869 2965 868 830 
2869 2965 868 830 3178 3274 867 837 
3178 3274 867 837 3487 3583 866 844 
3487 3583 866 844 43 134 873 851 
573 574 713 714 1634 1633 802 803 
1634 1633 802 803 1943 1942 809 810 
1943 1942 809 810 2252 2251 816 817 
2252 2251 816 817 2561 2560 823 824 
2561 2560 823 824 2870 2869 830 831 
2870 2869 830 831 3179 3178 837 838 
3179 3178 837 838 3488 3487 844 845 
3488 3487 844 845 44 43 851 852 
572 573 714 715 1635 1634 803 804 
1635 1634 803 804 1944 1943 810 811 
1944 1943 810 811 2253 2252 817 818 
2253 2252 817 818 2562 2561 824 825 
2562 2561 824 825 2871 2870 831 832 
2871 2870 831 832 3180 3179 838 839 
3180 3179 838 839 3489 3488 845 846 
3489 3488 845 846 45 44 852 853 
571 572 715 716 1636 1635 804 805 
1636 1635 804 805 1945 1944 811 812 
1945 1944 811 812 2254 2253 818 819 
2254 2253 818 819 2563 2562 825 826 
2563 2562 825 826 2872 2871 832 833 
2872 2871 832 833 3181 3180 839 840 
3181 3180 839 840 3490 3489 846 847 
3490 3489 846 847 46 45 853 854 
570 571 716 717 1637 1636 805 806 
1637 1636 805 806 1946 1945 812 813 
1946 1945 812 813 2255 2254 819 820 
2255 2254 819 820 2564 2563 826 827 
2564 2563 826 827 2873 2872 833 834 
2873 2872 833 834 3182 3181 840 841 
3182 3181 840 841 3491 3490 847 848 
3491 3490 847 848 47 46 854 855 
569 570 717 718 1638 1637 806 807 
1638 1637 806 807 1947 1946 813 814 
1947 1946 813 814 2256 2255 820 821 
2256 2255 820 821 2565 2564 827 828 
2565 2564 827 828 2874 2873 834 835 
2874 2873 834 835 3183 3182 841 842 
3183 3182 841 842 3492 3491 848 849 
3492 3491 848 849 48 47 855 856 
568 569 718 719 1639 1638 807 808 
1639 1638 807 808 1948 1947 814 815 
1948 1947 814 815 2257 2256 821 822 
2257 2256 821 822 2566 2565 828 829 
2566 2565 828 829 2875 2874 835 836 
2875 2874 835 836 3184 3183 842 843 
3184 3183 842 843 3493 3492 849 850 
3493 3492 849 850 49 48 856 857 
482 568 719 712 1730 1639 808 864 
1730 1639 808 864 2039 1948 815 863 
2039 1948 815 863 2348 2257 822 862 
2348 2257 822 862 2657 2566 829 861 
2657 2566 829 861 2966 2875 836 860 
2966 2875 836 860 3275 3184 843 859 
3275 3184 843 859 3584 3493 850 858 
3584 3493 850 858 135 49 857 865 
558 559 712 698 1649 1648 864 978 
1649 1648 864 978 1958 1957 863 971 
1958 1957 863 971 2267 2266 862 964 
2267 2266 862 964 2576 2575 861 957 
2576 2575 861 957 2885 2884 860 950 
2885 2884 860 950 3194 3193 859 943 
3194 3193 859 943 3503 3502 858 936 
3503 3502 858 936 59 58 865 985 
595 558 698 699 1650 1649 978 977 
1650 1649 978 977 1959 1958 971 970 
1959 1958 971 970 2268 2267 964 963 
2268 2267 964 963 2577 2576 957 956 
2577 2576 957 956 2886 2885 950 949 
2886 2885 950 949 3195 3194 943 942 
3195 3194 943 942 3504 3503 936 935 
3504 3503 936 935 22 59 985 984 
598 597 701 702 1653 1652 975 974 
1653 1652 975 974 1962 1961 968 967 
1962 1961 968 967 2271 2270 961 960 
2271 2270 961 960 2580 2579 954 953 
2580 2579 954 953 2889 2888 947 946 
2889 2888 947 946 3198 3197 940 939 
3198 3197 940 939 3507 3506 933 932 
3507 3506 933 932 19 20 982 981 
599 598 702 703 1654 1653 974 973 
1654 1653 974 973 1963 1962 967 966 
1963 1962 967 966 2272 2271 960 959 
2272 2271 960 959 2581 2580 953 952 
2581 2580 953 952 2890 2889 946 945 
2890 2889 946 945 3199 3198 939 938 
3199 3198 939 938 3508 3507 932 931 
3508 3507 932 931 18 19 981 980 
557 599 703 704 1655 1654 973 972 
1655 1654 973 972 1964 1963 966 965 
1964 1963 966 965 2273 2272 959 958 
2273 2272 959 958 2582 2581 952 951 
2582 2581 952 951 2891 2890 945 944 
2891 2890 945 944 3200 3199 938 937 
3200 3199 938 937 3509 3508 931 930 
3509 3508 931 930 60 18 980 979 
485 557 704 729 1727 1655 972 787 
1727 1655 972 787 2036 1964 965 788 
2036 1964 965 788 2345 2273 958 789 
2345 2273 958 789 2654 2582 951 790 
2654 2582 951 790 2963 2891 944 791 
2963 2891 944 791 3272 3200 937 792 
3272 3200 937 792 3581 3509 930 793 
3581 3509 930 793 132 60 979 786 
540 452 502 539 1672 1765 1710 1673 
1672 1765 1710 1673 1981 2074 2019 1982 
1981 2074 2019 1982 2290 2383 2328 2291 
2290 2383 2328 2291 2599 2692 2637 2600 
2599 2692 2637 2600 2908 3001 2946 2909 
2908 3001 2946 2909 3217 3310 3255 3218 
3217 3310 3255 3218 3526 3619 3564 3527 
3526 3619 3564 3527 77 165 115 78 
452 419 501 502 1765 1798 1711 1710 
1765 1798 1711 1710 2074 2107 2020 2019 
2074 2107 2020 2019 2383 2416 2329 2328 
2383 2416 2329 2328 2692 2725 2638 2637 
2692 2725 2638 2637 3001 3034 2947 2946 
3001 3034 2947 2946 3310 3343 3256 3255 
3310 3343 3256 3255 3619 3652 3565 3564 
3619 3652 3565 3564 165 198 116 115 
419 418 500 501 1798 1799 1712 1711 
1798 1799 1712 1711 2107 2108 2021 2020 
2107 2108 2021 2020 2416 2417 2330 2329 
2416 2417 2330 2329 2725 2726 2639 2638 
2725 2726 2639 2638 3034 3035 2948 2947 
3034 3035 2948 2947 3343 3344 3257 3256 
3343 3344 3257 3256 3652 3653 3566 3565 
3652 3653 3566 3565 198 199 117 116 
418 417 499 500 1799 1800 1713 1712 
1799 1800 1713 1712 2108 2109 2022 2021 
2108 2109 2022 2021 2417 2418 2331 2330 
2417 2418 2331 2330 2726 2727 2640 2639 
2726 2727 2640 2639 3035 3036 2949 2948 
3035 3036 2949 2948 3344 3345 3258 3257 
3344 3345 3258 3257 3653 3654 3567 3566 
3653 3654 3567 3566 199 200 118 117 
417 416 498 499 1800 1801 1714 1713 
1800 1801 1714 1713 2109 2110 2023 2022 
2109 2110 2023 2022 2418 2419 2332 2331 
2418 2419 2332 2331 2727 2728 2641 2640 
2727 2728 2641 2640 3036 3037 2950 2949 
3036 3037 2950 2949 3345 3346 3259 3258 
3345 3346 3259 3258 3654 3655 3568 3567 
3654 3655 3568 3567 200 201 119 118 
416 415 497 498 1801 1802 1715 1714 
1801 1802 1715 1714 2110 2111 2024 2023 
2110 2111 2024 2023 2419 2420 2333 2332 
2419 2420 2333 2332 2728 2729 2642 2641 
2728 2729 2642 2641 3037 3038 2951 2950 
3037 3038 2951 2950 3346 3347 3260 3259 
3346 3347 3260 3259 3655 3656 3569 3568 
3655 3656 3569 3568 201 202 120 119 
415 414 496 497 1802 1803 1716 1715 
1802 1803 1716 1715 2111 2112 2025 2024 
2111 2112 2025 2024 2420 2421 2334 2333 
2420 2421 2334 2333 2729 2730 2643 2642 
2729 2730 2643 2642 3038 3039 2952 2951 
3038 3039 2952 2951 3347 3348 3261 3260 
3347 3348 3261 3260 3656 3657 3570 3569 
3656 3657 3570 3569 202 203 121 120 
414 413 495 496 1803 1804 1717 1716 
1803 1804 1717 1716 2112 2113 2026 2025 
2112 2113 2026 2025 2421 2422 2335 2334 
2421 2422 2335 2334 2730 2731 2644 2643 
2730 2731 2644 2643 3039 3040 2953 2952 
3039 3040 2953 2952 3348 3349 3262 3261 
3348 3349 3262 3261 3657 3658 3571 3570 
3657 3658 3571 3570 203 204 122 121 
413 412 494 495 1804 1805 1718 1717 
1804 1805 1718 1717 2113 2114 2027 2026 
2113 2114 2027 2026 2422 2423 2336 2335 
2422 2423 2336 2335 2731 2732 2645 2644 
2731 2732 2645 2644 3040 3041 2954 2953 
3040 3041 2954 2953 3349 3350 3263 3262 
3349 3350 3263 3262 3658 3659 3572 3571 
3658 3659 3572 3571 204 205 123 122 
412 411 493 494 1805 1806 1719 1718 
1805 1806 1719 1718 2114 2115 2028 2027 
2114 2115 2028 2027 2423 2424 2337 2336 
2423 2424 2337 2336 2732 2733 2646 2645 
2732 2733 2646 2645 3041 3042 2955 2954 
3041 3042 2955 2954 3350 3351 3264 3263 
3350 3351 3264 3263 3659 3660 3573 3572 
3659 3660 3573 3572 205 206 124 123 
411 410 492 493 1806 1807 1720 1719 
1806 1807 1720 1719 2115 2116 2029 2028 
2115 2116 2029 2028 2424 2425 2338 2337 
2424 2425 2338 2337 2733 2734 2647 2646 
2733 2734 2647 2646 3042 3043 2956 2955 
3042 3043 2956 2955 3351 3352 3265 3264 
3351 3352 3265 3264 3660 3661 3574 3573 
3660 3661 3574 3573 206 207 125 124 
410 409 491 492 1807 1808 1721 1720 
1807 1808 1721 1720 2116 2117 2030 2029 
2116 2117 2030 2029 2425 2426 2339 2338 
2425 2426 2339 2338 2734 2735 2648 2647 
2734 2735 2648 2647 3043 3044 2957 2956 
3043 3044 2957 2956 3352 3353 3266 3265 
3352 3353 3266 3265 3661 3662 3575 3574 
3661 3662 3575 3574 207 208 126 125 
409 408 490 491 1808 1809 1722 1721 
1808 1809 1722 1721 2117 2118 2031 2030 
2117 2118 2031 2030 2426 2427 2340 2339 
2426 2427 2340 2339 2735 2736 2649 2648 
2735 2736 2649 2648 3044 3045 2958 2957 
3044 3045 2958 2957 3353 3354 3267 3266 
3353 3354 3267 3266 3662 3663 3576 3575 
3662 3663 3576 3575 208 209 127 126 
408 407 489 490 1809 1810 1723 1722 
1809 1810 1723 1722 2118 2119 2032 2031 
2118 2119 2032 2031 2427 2428 2341 2340 
2427 2428 2341 2340 2736 2737 2650 2649 
2736 2737 2650 2649 3045 3046 2959 2958 
3045 3046 2959 2958 3354 3355 3268 3267 
3354 3355 3268 3267 3663 3664 3577 3576 
3663 3664 3577 3576 209 210 128 127 
407 406 488 489 1810 1811 1724 1723 
1810 1811 1724 1723 2119 2120 2033 2032 
2119 2120 2033 2032 2428 2429 2342 2341 
2428 2429 2342 2341 2737 2738 2651 2650 
2737 2738 2651 2650 3046 3047 2960 2959 
3046 3047 2960 2959 3355 3356 3269 3268 
3355 3356 3269 3268 3664 3665 3578 3577 
3664 3665 3578 3577 210 211 129 128 
406 405 487 488 1811 1812 1725 1724 
1811 1812 1725 1724 2120 2121 2034 2033 
2120 2121 2034 2033 2429 2430 2343 2342 
2429 2430 2343 2342 2738 2739 2652 2651 
2738 2739 2652 2651 3047 3048 2961 2960 
3047 3048 2961 2960 3356 3357 3270 3269 
3356 3357 3270 3269 3665 3666 3579 3578 
3665 3666 3579 3578 211 212 130 129 
405 435 486 487 1812 1782 1726 1725 
1812 1782 1726 1725 2121 2091 2035 2034 
2121 2091 2035 2034 2430 2400 2344 2343 
2430 2400 2344 2343 2739 2709 2653 2652 
2739 2709 2653 2652 3048 3018 2962 2961 
3048 3018 2962 2961 3357 3327 3271 3270 
3357 3327 3271 3270 3666 3636 3580 3579 
3666 3636 3580 3579 212 182 131 130 
435 577 521 486 1782 1915 1691 1726 
1782 1915 1691 1726 2091 2224 2000 2035 
2091 2224 2000 2035 2400 2533 2309 2344 
2400 2533 2309 2344 2709 2842 2618 2653 
2709 2842 2618 2653 3018 3151 2927 2962 
3018 3151 2927 2962 3327 3460 3236 3271 
3327 3460 3236 3271 3636 3769 3545 3580 
3636 3769 3545 3580 182 40 96 131 
435 436 522 577 1782 1781 1690 1915 
1782 1781 1690 1915 2091 2090 1999 2224 
2091 2090 1999 2224 2400 2399 2308 2533 
2400 2399 2308 2533 2709 2708 2617 2842 
2709 2708 2617 2842 3018 3017 2926 3151 
3018 3017 2926 3151 3327 3326 3235 3460 
3327 3326 3235 3460 3636 3635 3544 3769 
3636 3635 3544 3769 182 181 95 40 
436 437 523 522 1781 1780 1689 1690 
1781 1780 1689 1690 2090 2089 1998 1999 
2090 2089 1998 1999 2399 2398 2307 2308 
2399 2398 2307 2308 2708 2707 2616 2617 
2708 2707 2616 2617 3017 3016 2925 2926 
3017 3016 2925 2926 3326 3325 3234 3235 
3326 3325 3234 3235 3635 3634 3543 3544 
3635 3634 3543 3544 181 180 94 95 
437 438 524 523 1780 1779 1688 1689 
1780 1779 1688 1689 2089 2088 1997 1998 
2089 2088 1997 1998 2398 2397 2306 2307 
2398 2397 2306 2307 2707 2706 2615 2616 
2707 2706 2615 2616 3016 3015 2924 2925 
3016 3015 2924 2925 3325 3324 3233 3234 
3325 3324 3233 3234 3634 3633 3542 3543 
3634 3633 3542 3543 180 179 93 94 
438 439 525 524 1779 1778 1687 1688 
1779 1778 1687 1688 2088 2087 1996 1997 
2088 2087 1996 1997 2397 2396 2305 2306 
2397 2396 2305 2306 2706 2705 2614 2615 
2706 2705 2614 2615 3015 3014 2923 2924 
3015 3014 2923 2924 3324 3323 3232 3233 
3324 3323 3232 3233 3633 3632 3541 3542 
3633 3632 3541 3542 179 178 92 93 
439 440 526 525 1778 1777 1686 1687 
1778 1777 1686 1687 2087 2086 1995 1996 
2087 2086 1995 1996 2396 2395 2304 2305 
2396 2395 2304 2305 2705 2704 2613 2614 
2705 2704 2613 2614 3014 3013 2922 2923 
3014 3013 2922 2923 3323 3322 3231 3232 
3323 3322 3231 3232 3632 3631 3540 3541 
3632 3631 3540 3541 178 177 91 92 
440 441 527 526 1777 1776 1685 1686 
1777 1776 1685 1686 2086 2085 1994 1995 
2086 2085 1994 1995 2395 2394 2303 2304 
2395 2394 2303 2304 2704 2703 2612 2613 
2704 2703 2612 2613 3013 3012 2921 2922 
3013 3012 2921 2922 3322 3321 3230 3231 
3322 3321 3230 3231 3631 3630 3539 3540 
3631 3630 3539 3540 177 176 90 91 
441 442 528 527 1776 1775 1684 1685 
1776 1775 1684 1685 2085 2084 1993 1994 
2085 2084 1993 1994 2394 2393 2302 2303 
2394 2393 2302 2303 2703 2702 2611 2612 
2703 2702 2611 2612 3012 3011 2920 2921 
3012 3011 2920 2921 3321 3320 3229 3230 
3321 3320 3229 3230 3630 3629 3538 3539 
3630 3629 3538 3539 176 175 89 90 
442 443 529 528 1775 1774 1683 1684 
1775 1774 1683 1684 2084 2083 1992 1993 
2084 2083 1992 1993 2393 2392 2301 2302 
2393 2392 2301 2302 2702 2701 2610 2611 
2702 2701 2610 2611 3011 3010 2919 2920 
3011 3010 2919 2920 3320 3319 3228 3229 
3320 3319 3228 3229 3629 3628 3537 3538 
3629 3628 3537 3538 175 174 88 89 
443 444 530 529 1774 1773 1682 1683 
1774 1773 1682 1683 2083 2082 1991 1992 
2083 2082 1991 1992 2392 2391 2300 2301 
2392 2391 2300 2301 2701 2700 2609 2610 
2701 2700 2609 2610 3010 3009 2918 2919 
3010 3009 2918 2919 3319 3318 3227 3228 
3319 3318 3227 3228 3628 3627 3536 3537 
3628 3627 3536 3537 174 173 87 88 
444 445 531 530 1773 1772 1681 1682 
1773 1772 1681 1682 2082 2081 1990 1991 
2082 2081 1990 1991 2391 2390 2299 2300 
2391 2390 2299 2300 2700 2699 2608 2609 
2700 2699 2608 2609 3009 3008 2917 2918 
3009 3008 2917 2918 3318 3317 3226 3227 
3318 3317 3226 3227 3627 3626 3535 3536 
3627 3626 3535 3536 173 172 86 87 
445 446 532 531 1772 1771 1680 1681 
1772 1771 1680 1681 2081 2080 1989 1990 
2081 2080 1989 1990 2390 2389 2298 2299 
2390 2389 2298 2299 2699 2698 2607 2608 
2699 2698 2607 2608 3008 3007 2916 2917 
3008 3007 2916 2917 3317 3316 3225 3226 
3317 3316 3225 3226 3626 3625 3534 3535 
3626 3625 3534 3535 172 171 85 86 
446 447 533 532 1771 1770 1679 1680 
1771 1770 1679 1680 2080 2079 1988 1989 
2080 2079 1988 1989 2389 2388 2297 2298 
2389 2388 2297 2298 2698 2697 2606 2607 
2698 2697 2606 2607 3007 3006 2915 2916 
3007 3006 2915 2916 3316 3315 3224 3225 
3316 3315 3224 3225 3625 3624 3533 3534 
3625 3624 3533 3534 171 170 84 85 
447 448 534 533 1770 1769 1678 1679 
1770 1769 1678 1679 2079 2078 1987 1988 
2079 2078 1987 1988 2388 2387 2296 2297 
2388 2387 2296 2297 2697 2696 2605 2606 
2697 2696 2605 2606 3006 3005 2914 2915 
3006 3005 2914 2915 3315 3314 3223 3224 
3315 3314 3223 3224 3624 3623 3532 3533 
3624 3623 3532 3533 170 169 83 84 
448 449 535 534 1769 1768 1677 1678 
1769 1768 1677 1678 2078 2077 1986 1987 
2078 2077 1986 1987 2387 2386 2295 2296 
2387 2386 2295 2296 2696 2695 2604 2605 
2696 2695 2604 2605 3005 3004 2913 2914 
3005 3004 2913 2914 3314 3313 3222 3223 
3314 3313 3222 3223 3623 3622 3531 3532 
3623 3622 3531 3532 169 168 82 83 
449 450 536 535 1768 1767 1676 1677 
1768 1767 1676 1677 2077 2076 1985 1986 
2077 2076 1985 1986 2386 2385 2294 2295 
2386 2385 2294 2295 2695 2694 2603 2604 
2695 2694 2603 2604 3004 3003 2912 2913 
3004 3003 2912 2913 3313 3312 3221 3222 
3313 3312 3221 3222 3622 3621 3530 3531 
3622 3621 3530 3531 168 167 81 82 
450 451 537 536 1767 1766 1675 1676 
1767 1766 1675 1676 2076 2075 1984 1985 
2076 2075 1984 1985 2385 2384 2293 2294 
2385 2384 2293 2294 2694 2693 2602 2603 
2694 2693 2602 2603 3003 3002 2911 2912 
3003 3002 2911 2912 3312 3311 3220 3221 
3312 3311 3220 3221 3621 3620 3529 3530 
3621 3620 3529 3530 167 166 80 81 
451 520 538 537 1766 1692 1674 1675 
1766 1692 1674 1675 2075 2001 1983 1984 
2075 2001 1983 1984 2384 2310 2292 2293 
2384 2310 2292 2293 2693 2619 2601 2602 
2693 2619 2601 2602 3002 2928 2910 2911 
3002 2928 2910 2911 3311 3237 3219 3220 
3311 3237 3219 3220 3620 3546 3528 3529 
3620 3546 3528 3529 166 97 79 80 
451 434 519 520 1766 1783 1693 1692 
1766 1783 1693 1692 2075 2092 2002 2001 
2075 2092 2002 2001 2384 2401 2311 2310 
2384 2401 2311 2310 2693 2710 2620 2619 
2693 2710 2620 2619 3002 3019 2929 2928 
3002 3019 2929 2928 3311 3328 3238 3237 
3311 3328 3238 3237 3620 3637 3547 3546 
3620 3637 3547 3546 166 183 98 97 
434 433 518 519 1783 1784 1694 1693 
1783 1784 1694 1693 2092 2093 2003 2002 
2092 2093 2003 2002 2401 2402 2312 2311 
2401 2402 2312 2311 2710 2711 2621 2620 
2710 2711 2621 2620 3019 3020 2930 2929 
3019 3020 2930 2929 3328 3329 3239 3238 
3328 3329 3239 3238 3637 3638 3548 3547 
3637 3638 3548 3547 183 184 99 98 
433 432 517 518 1784 1785 1695 1694 
1784 1785 1695 1694 2093 2094 2004 2003 
2093 2094 2004 2003 2402 2403 2313 2312 
2402 2403 2313 2312 2711 2712 2622 2621 
2711 2712 2622 2621 3020 3021 2931 2930 
3020 3021 2931 2930 3329 3330 3240 3239 
3329 3330 3240 3239 3638 3639 3549 3548 
3638 3639 3549 3548 184 185 100 99 
432 431 516 517 1785 1786 1696 1695 
1785 1786 1696 1695 2094 2095 2005 2004 
2094 2095 2005 2004 2403 2404 2314 2313 
2403 2404 2314 2313 2712 2713 2623 2622 
2712 2713 2623 2622 3021 3022 2932 2931 
3021 3022 2932 2931 3330 3331 3241 3240 
3330 3331 3241 3240 3639 3640 3550 3549 
3639 3640 3550 3549 185 186 101 100 
431 430 515 516 1786 1787 1697 1696 
1786 1787 1697 1696 2095 2096 2006 2005 
2095 2096 2006 2005 2404 2405 2315 2314 
2404 2405 2315 2314 2713 2714 2624 2623 
2713 2714 2624 2623 3022 3023 2933 2932 
3022 3023 2933 2932 3331 3332 3242 3241 
3331 3332 3242 3241 3640 3641 3551 3550 
3640 3641 3551 3550 186 187 102 101 
430 429 514 515 1787 1788 1698 1697 
1787 1788 1698 1697 2096 2097 2007 2006 
2096 2097 2007 2006 2405 2406 2316 2315 
2405 2406 2316 2315 2714 2715 2625 2624 
2714 2715 2625 2624 3023 3024 2934 2933 
3023 3024 2934 2933 3332 3333 3243 3242 
3332 3333 3243 3242 3641 3642 3552 3551 
3641 3642 3552 3551 187 188 103 102 
429 428 513 514 1788 1789 1699 1698 
1788 1789 1699 1698 2097 2098 2008 2007 
2097 2098 2008 2007 2406 2407 2317 2316 
2406 2407 2317 2316 2715 2716 2626 2625 
2715 2716 2626 2625 3024 3025 2935 2934 
3024 3025 2935 2934 3333 3334 3244 3243 
3333 3334 3244 3243 3642 3643 3553 3552 
3642 3643 3553 3552 188 189 104 103 
428 427 512 513 1789 1790 1700 1699 
1789 1790 1700 1699 2098 2099 2009 2008 
2098 2099 2009 2008 2407 2408 2318 2317 
2407 2408 2318 2317 2716 2717 2627 2626 
2716 2717 2627 2626 3025 3026 2936 2935 
3025 3026 2936 2935 3334 3335 3245 3244 
3334 3335 3245 3244 3643 3644 3554 3553 
3643 3644 3554 3553 189 190 105 104 
427 426 511 512 1790 1791 1701 1700 
1790 1791 1701 1700 2099 2100 2010 2009 
2099 2100 2010 2009 2408 2409 2319 2318 
2408 2409 2319 2318 2717 2718 2628 2627 
2717 2718 2628 2627 3026 3027 2937 2936 
3026 3027 2937 2936 3335 3336 3246 3245 
3335 3336 3246 3245 3644 3645 3555 3554 
3644 3645 3555 3554 190 191 106 105 
426 425 510 511 1791 1792 1702 1701 
1791 1792 1702 1701 2100 2101 2011 2010 
2100 2101 2011 2010 2409 2410 2320 2319 
2409 2410 2320 2319 2718 2719 2629 2628 
2718 2719 2629 2628 3027 3028 2938 2937 
3027 3028 2938 2937 3336 3337 3247 3246 
3336 3337 3247 3246 3645 3646 3556 3555 
3645 3646 3556 3555 191 192 107 106 
425 424 509 510 1792 1793 1703 1702 
1792 1793 1703 1702 2101 2102 2012 2011 
2101 2102 2012 2011 2410 2411 2321 2320 
2410 2411 2321 2320 2719 2720 2630 2629 
2719 2720 2630 2629 3028 3029 2939 2938 
3028 3029 2939 2938 3337 3338 3248 3247 
3337 3338 3248 3247 3646 3647 3557 3556 
3646 3647 3557 3556 192 193 108 107 
424 423 508 509 1793 1794 1704 1703 
1793 1794 1704 1703 2102 2103 2013 2012 
2102 2103 2013 2012 2411 2412 2322 2321 
2411 2412 2322 2321 2720 2721 2631 2630 
2720 2721 2631 2630 3029 3030 2940 2939 
3029 3030 2940 2939 3338 3339 3249 3248 
3338 3339 3249 3248 3647 3648 3558 3557 
3647 3648 3558 3557 193 194 109 108 
423 422 507 508 1794 1795 1705 1704 
1794 1795 1705 1704 2103 2104 2014 2013 
2103 2104 2014 2013 2412 2413 2323 2322 
2412 2413 2323 2322 2721 2722 2632 2631 
2721 2722 2632 2631 3030 3031 2941 2940 
3030 3031 2941 2940 3339 3340 3250 3249 
3339 3340 3250 3249 3648 3649 3559 3558 
3648 3649 3559 3558 194 195 110 109 
422 421 506 507 1795 1796 1706 1705 
1795 1796 1706 1705 2104 2105 2015 2014 
2104 2105 2015 2014 2413 2414 2324 2323 
2413 2414 2324 2323 2722 2723 2633 2632 
2722 2723 2633 2632 3031 3032 2942 2941 
3031 3032 2942 2941 3340 3341 3251 3250 
3340 3341 3251 3250 3649 3650 3560 3559 
3649 3650 3560 3559 195 196 111 110 
421 420 505 506 1796 1797 1707 1706 
1796 1797 1707 1706 2105 2106 2016 2015 
2105 2106 2016 2015 2414 2415 2325 2324 
2414 2415 2325 2324 2723 2724 2634 2633 
2723 2724 2634 2633 3032 3033 2943 2942 
3032 3033 2943 2942 3341 3342 3252 3251 
3341 3342 3252 3251 3650 3651 3561 3560 
3650 3651 3561 3560 196 197 112 111 
420 468 504 505 1797 1749 1708 1707 
1797 1749 1708 1707 2106 2058 2017 2016 
2106 2058 2017 2016 2415 2367 2326 2325 
2415 2367 2326 2325 2724 2676 2635 2634 
2724 2676 2635 2634 3033 2985 2944 2943 
3033 2985 2944 2943 3342 3294 3253 3252 
3342 3294 3253 3252 3651 3603 3562 3561 
3651 3603 3562 3561 197 149 113 112 
468 556 503 504 1749 1656 1709 1708 
1749 1656 1709 1708 2058 1965 2018 2017 
2058 1965 2018 2017 2367 2274 2327 2326 
2367 2274 2327 2326 2676 2583 2636 2635 
2676 2583 2636 2635 2985 2892 2945 2944 
2985 2892 2945 2944 3294 3201 3254 3253 
3294 3201 3254 3253 3603 3510 3563 3562 
3603 3510 3563 3562 149 61 114 113 
468 467 555 556 1749 1750 1657 1656 
1749 1750 1657 1656 2058 2059 1966 1965 
2058 2059 1966 1965 2367 2368 2275 2274 
2367 2368 2275 2274 2676 2677 2584 2583 
2676 2677 2584 2583 2985 2986 2893 2892 
2985 2986 2893 2892 3294 3295 3202 3201 
3294 3295 3202 3201 3603 3604 3511 3510 
3603 3604 3511 3510 149 150 62 61 
467 466 554 555 1750 1751 1658 1657 
1750 1751 1658 1657 2059 2060 1967 1966 
2059 2060 1967 1966 2368 2369 2276 2275 
2368 2369 2276 2275 2677 2678 2585 2584 
2677 2678 2585 2584 2986 2987 2894 2893 
2986 2987 2894 2893 3295 3296 3203 3202 
3295 3296 3203 3202 3604 3605 3512 3511 
3604 3605 3512 3511 150 151 63 62 
466 465 553 554 1751 1752 1659 1658 
1751 1752 1659 1658 2060 2061 1968 1967 
2060 2061 1968 1967 2369 2370 2277 2276 
2369 2370 2277 2276 2678 2679 2586 2585 
2678 2679 2586 2585 2987 2988 2895 2894 
2987 2988 2895 2894 3296 3297 3204 3203 
3296 3297 3204 3203 3605 3606 3513 3512 
3605 3606 3513 3512 151 152 64 63 
465 464 552 553 1752 1753 1660 1659 
1752 1753 1660 1659 2061 2062 1969 1968 
2061 2062 1969 1968 2370 2371 2278 2277 
2370 2371 2278 2277 2679 2680 2587 2586 
2679 2680 2587 2586 2988 2989 2896 2895 
2988 2989 2896 2895 3297 3298 3205 3204 
3297 3298 3205 3204 3606 3607 3514 3513 
3606 3607 3514 3513 152 153 65 64 
464 463 551 552 1753 1754 1661 1660 
1753 1754 1661 1660 2062 2063 1970 1969 
2062 2063 1970 1969 2371 2372 2279 2278 
2371 2372 2279 2278 2680 2681 2588 2587 
2680 2681 2588 2587 2989 2990 2897 2896 
2989 2990 2897 2896 3298 3299 3206 3205 
3298 3299 3206 3205 3607 3608 3515 3514 
3607 3608 3515 3514 153 154 66 65 
463 462 550 551 1754 1755 1662 1661 
1754 1755 1662 1661 2063 2064 1971 1970 
2063 2064 1971 1970 2372 2373 2280 2279 
2372 2373 2280 2279 2681 2682 2589 2588 
2681 2682 2589 2588 2990 2991 2898 2897 
2990 2991 2898 2897 3299 3300 3207 3206 
3299 3300 3207 3206 3608 3609 3516 3515 
3608 3609 3516 3515 154 155 67 66 
462 461 549 550 1755 1756 1663 1662 
1755 1756 1663 1662 2064 2065 1972 1971 
2064 2065 1972 1971 2373 2374 2281 2280 
2373 2374 2281 2280 2682 2683 2590 2589 
2682 2683 2590 2589 2991 2992 2899 2898 
2991 2992 2899 2898 3300 3301 3208 3207 
3300 3301 3208 3207 3609 3610 3517 3516 
3609 3610 3517 3516 155 156 68 67 
461 460 548 549 1756 1757 1664 1663 
1756 1757 1664 1663 2065 2066 1973 1972 
2065 2066 1973 1972 2374 2375 2282 2281 
2374 2375 2282 2281 2683 2684 2591 2590 
2683 2684 2591 2590 2992 2993 2900 2899 
2992 2993 2900 2899 3301 3302 3209 3208 
3301 3302 3209 3208 3610 3611 3518 3517 
3610 3611 3518 3517 156 157 69 68 
460 459 547 548 1757 1758 1665 1664 
1757 1758 1665 1664 2066 2067 1974 1973 
2066 2067 1974 1973 2375 2376 2283 2282 
2375 2376 2283 2282 2684 2685 2592 2591 
2684 2685 2592 2591 2993 2994 2901 2900 
2993 2994 2901 2900 3302 3303 3210 3209 
3302 3303 3210 3209 3611 3612 3519 3518 
3611 3612 3519 3518 157 158 70 69 
459 458 546 547 1758 1759 1666 1665 
1758 1759 1666 1665 2067 2068 1975 1974 
2067 2068 1975 1974 2376 2377 2284 2283 
2376 2377 2284 2283 2685 2686 2593 2592 
2685 2686 2593 2592 2994 2995 2902 2901 
2994 2995 2902 2901 3303 3304 3211 3210 
3303 3304 3211 3210 3612 3613 3520 3519 
3612 3613 3520 3519 158 159 71 70 
458 457 545 546 1759 1760 1667 1666 
1759 1760 1667 1666 2068 2069 1976 1975 
2068 2069 1976 1975 2377 2378 2285 2284 
2377 2378 2285 2284 2686 2687 2594 2593 
2686 2687 2594 2593 2995 2996 2903 2902 
2995 2996 2903 2902 3304 3305 3212 3211 
3304 3305 3212 3211 3613 3614 3521 3520 
3613 3614 3521 3520 159 160 72 71 
457 456 544 545 1760 1761 1668 1667 
1760 1761 1668 1667 2069 2070 1977 1976 
2069 2070 1977 1976 2378 2379 2286 2285 
2378 2379 2286 2285 2687 2688 2595 2594 
2687 2688 2595 2594 2996 2997 2904 2903 
2996 2997 2904 2903 3305 3306 3213 3212 
3305 3306 3213 3212 3614 3615 3522 3521 
3614 3615 3522 3521 160 161 73 72 
456 455 543 544 1761 1762 1669 1668 
1761 1762 1669 1668 2070 2071 1978 1977 
2070 2071 1978 1977 2379 2380 2287 2286 
2379 2380 2287 2286 2688 2689 2596 2595 
2688 2689 2596 2595 2997 2998 2905 2904 
2997 2998 2905 2904 3306 3307 3214 3213 
3306 3307 3214 3213 3615 3616 3523 3522 
3615 3616 3523 3522 161 162 74 73 
455 454 542 543 1762 1763 1670 1669 
1762 1763 1670 1669 2071 2072 1979 1978 
2071 2072 1979 1978 2380 2381 2288 2287 
2380 2381 2288 2287 2689 2690 2597 2596 
2689 2690 2597 2596 2998 2999 2906 2905 
2998 2999 2906 2905 3307 3308 3215 3214 
3307 3308 3215 3214 3616 3617 3524 3523 
3616 3617 3524 3523 162 163 75 74 
454 453 541 542 1763 1764 1671 1670 
1763 1764 1671 1670 2072 2073 1980 1979 
2072 2073 1980 1979 2381 2382 2289 2288 
2381 2382 2289 2288 2690 2691 2598 2597 
2690 2691 2598 2597 2999 3000 2907 2906 
2999 3000 2907 2906 3308 3309 3216 3215 
3308 3309 3216 3215 3617 3618 3525 3524 
3617 3618 3525 3524 163 164 76 75 
453 452 540 541 1764 1765 1672 1671 
1764 1765 1672 1671 2073 2074 1981 1980 
2073 2074 1981 1980 2382 2383 2290 2289 
2382 2383 2290 2289 2691 2692 2599 2598 
2691 2692 2599 2598 3000 3001 2908 2907 
3000 3001 2908 2907 3309 3310 3217 3216 
3309 3310 3217 3216 3618 3619 3526 3525 
3618 3619 3526 3525 164 165 77 76 
560 473 484 721 1647 1742 1728 795 
1647 1742 1728 795 1956 2051 2037 796 
1956 2051 2037 796 2265 2360 2346 797 
2265 2360 2346 797 2574 2669 2655 798 
2574 2669 2655 798 2883 2978 2964 799 
2883 2978 2964 799 3192 3287 3273 800 
3192 3287 3273 800 3501 3596 3582 801 
3501 3596 3582 801 57 144 133 794 
483 402 476 720 1729 1815 1739 872 
1729 1815 1739 872 2038 2124 2048 871 
2038 2124 2048 871 2347 2433 2357 870 
2347 2433 2357 870 2656 2742 2666 869 
2656 2742 2666 869 2965 3051 2975 868 
2965 3051 2975 868 3274 3360 3284 867 
3274 3360 3284 867 3583 3669 3593 866 
3583 3669 3593 866 134 215 141 873 
559 472 482 712 1648 1743 1730 864 
1648 1743 1730 864 1957 2052 2039 863 
1957 2052 2039 863 2266 2361 2348 862 
2266 2361 2348 862 2575 2670 2657 861 
2575 2670 2657 861 2884 2979 2966 860 
2884 2979 2966 860 3193 3288 3275 859 
3193 3288 3275 859 3502 3597 3584 858 
3502 3597 3584 858 58 145 135 865 
481 404 485 729 1731 1813 1727 787 
1731 1813 1727 787 2040 2122 2036 788 
2040 2122 2036 788 2349 2431 2345 789 
2349 2431 2345 789 2658 2740 2654 790 
2658 2740 2654 790 2967 3049 2963 791 
2967 3049 2963 791 3276 3358 3272 792 
3276 3358 3272 792 3585 3667 3581 793 
3585 3667 3581 793 136 213 132 786 
405 342 436 435 1812 1883 1781 1782 
1812 1883 1781 1782 2121 2192 2090 2091 
2121 2192 2090 2091 2430 2501 2399 2400 
2430 2501 2399 2400 2739 2810 2708 2709 
2739 2810 2708 2709 3048 3119 3017 3018 
3048 3119 3017 3018 3357 3428 3326 3327 
3357 3428 3326 3327 3666 3737 3635 3636 
3666 3737 3635 3636 212 275 181 182 
342 343 437 436 1883 1882 1780 1781 
1883 1882 1780 1781 2192 2191 2089 2090 
2192 2191 2089 2090 2501 2500 2398 2399 
2501 2500 2398 2399 2810 2809 2707 2708 
2810 2809 2707 2708 3119 3118 3016 3017 
3119 3118 3016 3017 3428 3427 3325 3326 
3428 3427 3325 3326 3737 3736 3634 3635 
3737 3736 3634 3635 275 274 180 181 
343 344 438 437 1882 1881 1779 1780 
1882 1881 1779 1780 2191 2190 2088 2089 
2191 2190 2088 2089 2500 2499 2397 2398 
2500 2499 2397 2398 2809 2808 2706 2707 
2809 2808 2706 2707 3118 3117 3015 3016 
3118 3117 3015 3016 3427 3426 3324 3325 
3427 3426 3324 3325 3736 3735 3633 3634 
3736 3735 3633 3634 274 273 179 180 
344 345 439 438 1881 1880 1778 1779 
1881 1880 1778 1779 2190 2189 2087 2088 
2190 2189 2087 2088 2499 2498 2396 2397 
2499 2498 2396 2397 2808 2807 2705 2706 
2808 2807 2705 2706 3117 3116 3014 3015 
3117 3116 3014 3015 3426 3425 3323 3324 
3426 3425 3323 3324 3735 3734 3632 3633 
3735 3734 3632 3633 273 272 178 179 
345 346 440 439 1880 1879 1777 1778 
1880 1879 1777 1778 2189 2188 2086 2087 
2189 2188 2086 2087 2498 2497 2395 2396 
2498 2497 2395 2396 2807 2806 2704 2705 
2807 2806 2704 2705 3116 3115 3013 3014 
3116 3115 3013 3014 3425 3424 3322 3323 
3425 3424 3322 3323 3734 3733 3631 3632 
3734 3733 3631 3632 272 271 177 178 
346 347 441 440 1879 1878 1776 1777 
1879 1878 1776 1777 2188 2187 2085 2086 
2188 2187 2085 2086 2497 2496 2394 2395 
2497 2496 2394 2395 2806 2805 2703 2704 
2806 2805 2703 2704 3115 3114 3012 3013 
3115 3114 3012 3013 3424 3423 3321 3322 
3424 3423 3321 3322 3733 3732 3630 3631 
3733 3732 3630 3631 271 270 176 177 
347 348 442 441 1878 1877 1775 1776 
1878 1877 1775 1776 2187 2186 2084 2085 
2187 2186 2084 2085 2496 2495 2393 2394 
2496 2495 2393 2394 2805 2804 2702 2703 
2805 2804 2702 2703 3114 3113 3011 3012 
3114 3113 3011 3012 3423 3422 3320 3321 
3423 3422 3320 3321 3732 3731 3629 3630 
3732 3731 3629 3630 270 269 175 176 
348 349 443 442 1877 1876 1774 1775 
1877 1876 1774 1775 2186 2185 2083 2084 
2186 2185 2083 2084 2495 2494 2392 2393 
2495 2494 2392 2393 2804 2803 2701 2702 
2804 2803 2701 2702 3113 3112 3010 3011 
3113 3112 3010 3011 3422 3421 3319 3320 
3422 3421 3319 3320 3731 3730 3628 3629 
3731 3730 3628 3629 269 268 174 175 
349 350 444 443 1876 1875 1773 1774 
1876 1875 1773 1774 2185 2184 2082 2083 
2185 2184 2082 2083 2494 2493 2391 2392 
2494 2493 2391 2392 2803 2802 2700 2701 
2803 2802 2700 2701 3112 3111 3009 3010 
3112 3111 3009 3010 3421 3420 3318 3319 
3421 3420 3318 3319 3730 3729 3627 3628 
3730 3729 3627 3628 268 267 173 174 
350 351 445 444 1875 1874 1772 1773 
1875 1874 1772 1773 2184 2183 2081 2082 
2184 2183 2081 2082 2493 2492 2390 2391 
2493 2492 2390 2391 2802 2801 2699 2700 
2802 2801 2699 2700 3111 3110 3008 3009 
3111 3110 3008 3009 3420 3419 3317 3318 
3420 3419 3317 3318 3729 3728 3626 3627 
3729 3728 3626 3627 267 266 172 173 
351 352 446 445 1874 1873 1771 1772 
1874 1873 1771 1772 2183 2182 2080 2081 
2183 2182 2080 2081 2492 2491 2389 2390 
2492 2491 2389 2390 2801 2800 2698 2699 
2801 2800 2698 2699 3110 3109 3007 3008 
3110 3109 3007 3008 3419 3418 3316 3317 
3419 3418 3316 3317 3728 3727 3625 3626 
3728 3727 3625 3626 266 265 171 172 
352 353 447 446 1873 1872 1770 1771 
1873 1872 1770 1771 2182 2181 2079 2080 
2182 2181 2079 2080 2491 2490 2388 2389 
2491 2490 2388 2389 2800 2799 2697 2698 
2800 2799 2697 2698 3109 3108 3006 3007 
3109 3108 3006 3007 3418 3417 3315 3316 
3418 3417 3315 3316 3727 3726 3624 3625 
3727 3726 3624 3625 265 264 170 171 
353 354 448 447 1872 1871 1769 1770 
1872 1871 1769 1770 2181 2180 2078 2079 
2181 2180 2078 2079 2490 2489 2387 2388 
2490 2489 2387 2388 2799 2798 2696 2697 
2799 2798 2696 2697 3108 3107 3005 3006 
3108 3107 3005 3006 3417 3416 3314 3315 
3417 3416 3314 3315 3726 3725 3623 3624 
3726 3725 3623 3624 264 263 169 170 
354 355 449 448 1871 1870 1768 1769 
1871 1870 1768 1769 2180 2179 2077 2078 
2180 2179 2077 2078 2489 2488 2386 2387 
2489 2488 2386 2387 2798 2797 2695 2696 
2798 2797 2695 2696 3107 3106 3004 3005 
3107 3106 3004 3005 3416 3415 3313 3314 
3416 3415 3313 3314 3725 3724 3622 3623 
3725 3724 3622 3623 263 262 168 169 
355 356 450 449 1870 1869 1767 1768 
1870 1869 1767 1768 2179 2178 2076 2077 
2179 2178 2076 2077 2488 2487 2385 2386 
2488 2487 2385 2386 2797 2796 2694 2695 
2797 2796 2694 2695 3106 3105 3003 3004 
3106 3105 3003 3004 3415 3414 3312 3313 
3415 3414 3312 3313 3724 3723 3621 3622 
3724 3723 3621 3622 262 261 167 168 
356 434 451 450 1869 1783 1766 1767 
1869 1783 1766 1767 2178 2092 2075 2076 
2178 2092 2075 2076 2487 2401 2384 2385 
2487 2401 2384 2385 2796 2710 2693 2694 
2796 2710 2693 2694 3105 3019 3002 3003 
3105 3019 3002 3003 3414 3328 3311 3312 
3414 3328 3311 3312 3723 3637 3620 3621 
3723 3637 3620 3621 261 183 166 167 
356 341 433 434 1869 1884 1784 1783 
1869 1884 1784 1783 2178 2193 2093 2092 
2178 2193 2093 2092 2487 2502 2402 2401 
2487 2502 2402 2401 2796 2811 2711 2710 
2796 2811 2711 2710 3105 3120 3020 3019 
3105 3120 3020 3019 3414 3429 3329 3328 
3414 3429 3329 3328 3723 3738 3638 3637 
3723 3738 3638 3637 261 276 184 183 
341 340 432 433 1884 1885 1785 1784 
1884 1885 1785 1784 2193 2194 2094 2093 
2193 2194 2094 2093 2502 2503 2403 2402 
2502 2503 2403 2402 2811 2812 2712 2711 
2811 2812 2712 2711 3120 3121 3021 3020 
3120 3121 3021 3020 3429 3430 3330 3329 
3429 3430 3330 3329 3738 3739 3639 3638 
3738 3739 3639 3638 276 277 185 184 
340 339 431 432 1885 1886 1786 1785 
1885 1886 1786 1785 2194 2195 2095 2094 
2194 2195 2095 2094 2503 2504 2404 2403 
2503 2504 2404 2403 2812 2813 2713 2712 
2812 2813 2713 2712 3121 3122 3022 3021 
3121 3122 3022 3021 3430 3431 3331 3330 
3430 3431 3331 3330 3739 3740 3640 3639 
3739 3740 3640 3639 277 278 186 185 
339 338 430 431 1886 1887 1787 1786 
1886 1887 1787 1786 2195 2196 2096 2095 
2195 2196 2096 2095 2504 2505 2405 2404 
2504 2505 2405 2404 2813 2814 2714 2713 
2813 2814 2714 2713 3122 3123 3023 3022 
3122 3123 3023 3022 3431 3432 3332 3331 
3431 3432 3332 3331 3740 3741 3641 3640 
3740 3741 3641 3640 278 279 187 186 
338 337 429 430 1887 1888 1788 1787 
1887 1888 1788 1787 2196 2197 2097 2096 
2196 2197 2097 2096 2505 2506 2406 2405 
2505 2506 2406 2405 2814 2815 2715 2714 
2814 2815 2715 2714 3123 3124 3024 3023 
3123 3124 3024 3023 3432 3433 3333 3332 
3432 3433 3333 3332 3741 3742 3642 3641 
3741 3742 3642 3641 279 280 188 187 
337 336 428 429 1888 1889 1789 1788 
1888 1889 1789 1788 2197 2198 2098 2097 
2197 2198 2098 2097 2506 2507 2407 2406 
2506 2507 2407 2406 2815 2816 2716 2715 
2815 2816 2716 2715 3124 3125 3025 3024 
3124 3125 3025 3024 3433 3434 3334 3333 
3433 3434 3334 3333 3742 3743 3643 3642 
3742 3743 3643 3642 280 281 189 188 
336 335 427 428 1889 1890 1790 1789 
1889 1890 1790 1789 2198 2199 2099 2098 
2198 2199 2099 2098 2507 2508 2408 2407 
2507 2508 2408 2407 2816 2817 2717 2716 
2816 2817 2717 2716 3125 3126 3026 3025 
3125 3126 3026 3025 3434 3435 3335 3334 
3434 3435 3335 3334 3743 3744 3644 3643 
3743 3744 3644 3643 281 282 190 189 
335 334 426 427 1890 1891 1791 1790 
1890 1891 1791 1790 2199 2200 2100 2099 
2199 2200 2100 2099 2508 2509 2409 2408 
2508 2509 2409 2408 2817 2818 2718 2717 
2817 2818 2718 2717 3126 3127 3027 3026 
3126 3127 3027 3026 3435 3436 3336 3335 
3435 3436 3336 3335 3744 3745 3645 3644 
3744 3745 3645 3644 282 283 191 190 
334 333 425 426 1891 1892 1792 1791 
1891 1892 1792 1791 2200 2201 2101 2100 
2200 2201 2101 2100 2509 2510 2410 2409 
2509 2510 2410 2409 2818 2819 2719 2718 
2818 2819 2719 2718 3127 3128 3028 3027 
3127 3128 3028 3027 3436 3437 3337 3336 
3436 3437 3337 3336 3745 3746 3646 3645 
3745 3746 3646 3645 283 284 192 191 
333 332 424 425 1892 1893 1793 1792 
1892 1893 1793 1792 2201 2202 2102 2101 
2201 2202 2102 2101 2510 2511 2411 2410 
2510 2511 2411 2410 2819 2820 2720 2719 
2819 2820 2720 2719 3128 3129 3029 3028 
3128 3129 3029 3028 3437 3438 3338 3337 
3437 3438 3338 3337 3746 3747 3647 3646 
3746 3747 3647 3646 284 285 193 192 
332 331 423 424 1893 1894 1794 1793 
1893 1894 1794 1793 2202 2203 2103 2102 
2202 2203 2103 2102 2511 2512 2412 2411 
2511 2512 2412 2411 2820 2821 2721 2720 
2820 2821 2721 2720 3129 3130 3030 3029 
3129 3130 3030 3029 3438 3439 3339 3338 
3438 3439 3339 3338 3747 3748 3648 3647 
3747 3748 3648 3647 285 286 194 193 
331 330 422 423 1894 1895 1795 1794 
1894 1895 1795 1794 2203 2204 2104 2103 
2203 2204 2104 2103 2512 2513 2413 2412 
2512 2513 2413 2412 2821 2822 2722 2721 
2821 2822 2722 2721 3130 3131 3031 3030 
3130 3131 3031 3030 3439 3440 3340 3339 
3439 3440 3340 3339 3748 3749 3649 3648 
3748 3749 3649 3648 286 287 195 194 
330 329 421 422 1895 1896 1796 1795 
1895 1896 1796 1795 2204 2205 2105 2104 
2204 2205 2105 2104 2513 2514 2414 2413 
2513 2514 2414 2413 2822 2823 2723 2722 
2822 2823 2723 2722 3131 3132 3032 3031 
3131 3132 3032 3031 3440 3441 3341 3340 
3440 3441 3341 3340 3749 3750 3650 3649 
3749 3750 3650 3649 287 288 196 195 
329 371 420 421 1896 1854 1797 1796 
1896 1854 1797 1796 2205 2163 2106 2105 
2205 2163 2106 2105 2514 2472 2415 2414 
2514 2472 2415 2414 2823 2781 2724 2723 
2823 2781 2724 2723 3132 3090 3033 3032 
3132 3090 3033 3032 3441 3399 3342 3341 
3441 3399 3342 3341 3750 3708 3651 3650 
3750 3708 3651 3650 288 246 197 196 
371 467 468 420 1854 1750 1749 1797 
1854 1750 1749 1797 2163 2059 2058 2106 
2163 2059 2058 2106 2472 2368 2367 2415 
2472 2368 2367 2415 2781 2677 2676 2724 
2781 2677 2676 2724 3090 2986 2985 3033 
3090 2986 2985 3033 3399 3295 3294 3342 
3399 3295 3294 3342 3708 3604 3603 3651 
3708 3604 3603 3651 246 150 149 197 
371 370 466 467 1854 1855 1751 1750 
1854 1855 1751 1750 2163 2164 2060 2059 
2163 2164 2060 2059 2472 2473 2369 2368 
2472 2473 2369 2368 2781 2782 2678 2677 
2781 2782 2678 2677 3090 3091 2987 2986 
3090 3091 2987 2986 3399 3400 3296 3295 
3399 3400 3296 3295 3708 3709 3605 3604 
3708 3709 3605 3604 246 247 151 150 
370 369 465 466 1855 1856 1752 1751 
1855 1856 1752 1751 2164 2165 2061 2060 
2164 2165 2061 2060 2473 2474 2370 2369 
2473 2474 2370 2369 2782 2783 2679 2678 
2782 2783 2679 2678 3091 3092 2988 2987 
3091 3092 2988 2987 3400 3401 3297 3296 
3400 3401 3297 3296 3709 3710 3606 3605 
3709 3710 3606 3605 247 248 152 151 
369 368 464 465 1856 1857 1753 1752 
1856 1857 1753 1752 2165 2166 2062 2061 
2165 2166 2062 2061 2474 2475 2371 2370 
2474 2475 2371 2370 2783 2784 2680 2679 
2783 2784 2680 2679 3092 3093 2989 2988 
3092 3093 2989 2988 3401 3402 3298 3297 
3401 3402 3298 3297 3710 3711 3607 3606 
3710 3711 3607 3606 248 249 153 152 
368 367 463 464 1857 1858 1754 1753 
1857 1858 1754 1753 2166 2167 2063 2062 
2166 2167 2063 2062 2475 2476 2372 2371 
2475 2476 2372 2371 2784 2785 2681 2680 
2784 2785 2681 2680 3093 3094 2990 2989 
3093 3094 2990 2989 3402 3403 3299 3298 
3402 3403 3299 3298 3711 3712 3608 3607 
3711 3712 3608 3607 249 250 154 153 
367 366 462 463 1858 1859 1755 1754 
1858 1859 1755 1754 2167 2168 2064 2063 
2167 2168 2064 2063 2476 2477 2373 2372 
2476 2477 2373 2372 2785 2786 2682 2681 
2785 2786 2682 2681 3094 3095 2991 2990 
3094 3095 2991 2990 3403 3404 3300 3299 
3403 3404 3300 3299 3712 3713 3609 3608 
3712 3713 3609 3608 250 251 155 154 
366 365 461 462 1859 1860 1756 1755 
1859 1860 1756 1755 2168 2169 2065 2064 
2168 2169 2065 2064 2477 2478 2374 2373 
2477 2478 2374 2373 2786 2787 2683 2682 
2786 2787 2683 2682 3095 3096 2992 2991 
3095 3096 2992 2991 3404 3405 3301 3300 
3404 3405 3301 3300 3713 3714 3610 3609 
3713 3714 3610 3609 251 252 156 155 
365 364 460 461 1860 1861 1757 1756 
1860 1861 1757 1756 2169 2170 2066 2065 
2169 2170 2066 2065 2478 2479 2375 2374 
2478 2479 2375 2374 2787 2788 2684 2683 
2787 2788 2684 2683 3096 3097 2993 2992 
3096 3097 2993 2992 3405 3406 3302 3301 
3405 3406 3302 3301 3714 3715 3611 3610 
3714 3715 3611 3610 252 253 157 156 
364 363 459 460 1861 1862 1758 1757 
1861 1862 1758 1757 2170 2171 2067 2066 
2170 2171 2067 2066 2479 2480 2376 2375 
2479 2480 2376 2375 2788 2789 2685 2684 
2788 2789 2685 2684 3097 3098 2994 2993 
3097 3098 2994 2993 3406 3407 3303 3302 
3406 3407 3303 3302 3715 3716 3612 3611 
3715 3716 3612 3611 253 254 158 157 
363 362 458 459 1862 1863 1759 1758 
1862 1863 1759 1758 2171 2172 2068 2067 
2171 2172 2068 2067 2480 2481 2377 2376 
2480 2481 2377 2376 2789 2790 2686 2685 
2789 2790 2686 2685 3098 3099 2995 2994 
3098 3099 2995 2994 3407 3408 3304 3303 
3407 3408 3304 3303 3716 3717 3613 3612 
3716 3717 3613 3612 254 255 159 158 
362 361 457 458 1863 1864 1760 1759 
1863 1864 1760 1759 2172 2173 2069 2068 
2172 2173 2069 2068 2481 2482 2378 2377 
2481 2482 2378 2377 2790 2791 2687 2686 
2790 2791 2687 2686 3099 3100 2996 2995 
3099 3100 2996 2995 3408 3409 3305 3304 
3408 3409 3305 3304 3717 3718 3614 3613 
3717 3718 3614 3613 255 256 160 159 
361 360 456 457 1864 1865 1761 1760 
1864 1865 1761 1760 2173 2174 2070 2069 
2173 2174 2070 2069 2482 2483 2379 2378 
2482 2483 2379 2378 2791 2792 2688 2687 
2791 2792 2688 2687 3100 3101 2997 2996 
3100 3101 2997 2996 3409 3410 3306 3305 
3409 3410 3306 3305 3718 3719 3615 3614 
3718 3719 3615 3614 256 257 161 160 
360 359 455 456 1865 1866 1762 1761 
1865 1866 1762 1761 2174 2175 2071 2070 
2174 2175 2071 2070 2483 2484 2380 2379 
2483 2484 2380 2379 2792 2793 2689 2688 
2792 2793 2689 2688 3101 3102 2998 2997 
3101 3102 2998 2997 3410 3411 3307 3306 
3410 3411 3307 3306 3719 3720 3616 3615 
3719 3720 3616 3615 257 258 162 161 
359 358 454 455 1866 1867 1763 1762 
1866 1867 1763 1762 2175 2176 2072 2071 
2175 2176 2072 2071 2484 2485 2381 2380 
2484 2485 2381 2380 2793 2794 2690 2689 
2793 2794 2690 2689 3102 3103 2999 2998 
3102 3103 2999 2998 3411 3412 3308 3307 
3411 3412 3308 3307 3720 3721 3617 3616 
3720 3721 3617 3616 258 259 163 162 
358 357 453 454 1867 1868 1764 1763 
1867 1868 1764 1763 2176 2177 2073 2072 
2176 2177 2073 2072 2485 2486 2382 2381 
2485 2486 2382 2381 2794 2795 2691 2690 
2794 2795 2691 2690 3103 3104 3000 2999 
3103 3104 3000 2999 3412 3413 3309 3308 
3412 3413 3309 3308 3721 3722 3618 3617 
3721 3722 3618 3617 259 260 164 163 
357 419 452 453 1868 1798 1765 1764 
1868 1798 1765 1764 2177 2107 2074 2073 
2177 2107 2074 2073 2486 2416 2383 2382 
2486 2416 2383 2382 2795 2725 2692 2691 
2795 2725 2692 2691 3104 3034 3001 3000 
3104 3034 3001 3000 3413 3343 3310 3309 
3413 3343 3310 3309 3722 3652 3619 3618 
3722 3652 3619 3618 260 198 165 164 
357 328 418 419 1868 1897 1799 1798 
1868 1897 1799 1798 2177 2206 2108 2107 
2177 2206 2108 2107 2486 2515 2417 2416 
2486 2515 2417 2416 2795 2824 2726 2725 
2795 2824 2726 2725 3104 3133 3035 3034 
3104 3133 3035 3034 3413 3442 3344 3343 
3413 3442 3344 3343 3722 3751 3653 3652 
3722 3751 3653 3652 260 289 199 198 
328 327 417 418 1897 1898 1800 1799 
1897 1898 1800 1799 2206 2207 2109 2108 
2206 2207 2109 2108 2515 2516 2418 2417 
2515 2516 2418 2417 2824 2825 2727 2726 
2824 2825 2727 2726 3133 3134 3036 3035 
3133 3134 3036 3035 3442 3443 3345 3344 
3442 3443 3345 3344 3751 3752 3654 3653 
3751 3752 3654 3653 289 290 200 199 
327 326 416 417 1898 1899 1801 1800 
1898 1899 1801 1800 2207 2208 2110 2109 
2207 2208 2110 2109 2516 2517 2419 2418 
2516 2517 2419 2418 2825 2826 2728 2727 
2825 2826 2728 2727 3134 3135 3037 3036 
3134 3135 3037 3036 3443 3444 3346 3345 
3443 3444 3346 3345 3752 3753 3655 3654 
3752 3753 3655 3654 290 291 201 200 
326 325 415 416 1899 1900 1802 1801 
1899 1900 1802 1801 2208 2209 2111 2110 
2208 2209 2111 2110 2517 2518 2420 2419 
2517 2518 2420 2419 2826 2827 2729 2728 
2826 2827 2729 2728 3135 3136 3038 3037 
3135 3136 3038 3037 3444 3445 3347 3346 
3444 3445 3347 3346 3753 3754 3656 3655 
3753 3754 3656 3655 291 292 202 201 
325 324 414 415 1900 1901 1803 1802 
1900 1901 1803 1802 2209 2210 2112 2111 
2209 2210 2112 2111 2518 2519 2421 2420 
2518 2519 2421 2420 2827 2828 2730 2729 
2827 2828 2730 2729 3136 3137 3039 3038 
3136 3137 3039 3038 3445 3446 3348 3347 
3445 3446 3348 3347 3754 3755 3657 3656 
3754 3755 3657 3656 292 293 203 202 
324 323 413 414 1901 1902 1804 1803 
1901 1902 1804 1803 2210 2211 2113 2112 
2210 2211 2113 2112 2519 2520 2422 2421 
2519 2520 2422 2421 2828 2829 2731 2730 
2828 2829 2731 2730 3137 3138 3040 3039 
3137 3138 3040 3039 3446 3447 3349 3348 
3446 3447 3349 3348 3755 3756 3658 3657 
3755 3756 3658 3657 293 294 204 203 
323 322 412 413 1902 1903 1805 1804 
1902 1903 1805 1804 2211 2212 2114 2113 
2211 2212 2114 2113 2520 2521 2423 2422 
2520 2521 2423 2422 2829 2830 2732 2731 
2829 2830 2732 2731 3138 3139 3041 3040 
3138 3139 3041 3040 3447 3448 3350 3349 
3447 3448 3350 3349 3756 3757 3659 3658 
3756 3757 3659 3658 294 295 205 204 
322 321 411 412 1903 1904 1806 1805 
1903 1904 1806 1805 2212 2213 2115 2114 
2212 2213 2115 2114 2521 2522 2424 2423 
2521 2522 2424 2423 2830 2831 2733 2732 
2830 2831 2733 2732 3139 3140 3042 3041 
3139 3140 3042 3041 3448 3449 3351 3350 
3448 3449 3351 3350 3757 3758 3660 3659 
3757 3758 3660 3659 295 296 206 205 
321 320 410 411 1904 1905 1807 1806 
1904 1905 1807 1806 2213 2214 2116 2115 
2213 2214 2116 2115 2522 2523 2425 2424 
2522 2523 2425 2424 2831 2832 2734 2733 
2831 2832 2734 2733 3140 3141 3043 3042 
3140 3141 3043 3042 3449 3450 3352 3351 
3449 3450 3352 3351 3758 3759 3661 3660 
3758 3759 3661 3660 296 297 207 206 
320 319 409 410 1905 1906 1808 1807 
1905 1906 1808 1807 2214 2215 2117 2116 
2214 2215 2117 2116 2523 2524 2426 2425 
2523 2524 2426 2425 2832 2833 2735 2734 
2832 2833 2735 2734 3141 3142 3044 3043 
3141 3142 3044 3043 3450 3451 3353 3352 
3450 3451 3353 3352 3759 3760 3662 3661 
3759 3760 3662 3661 297 298 208 207 
319 318 408 409 1906 1907 1809 1808 
1906 1907 1809 1808 2215 2216 2118 2117 
2215 2216 2118 2117 2524 2525 2427 2426 
2524 2525 2427 2426 2833 2834 2736 2735 
2833 2834 2736 2735 3142 3143 3045 3044 
3142 3143 3045 3044 3451 3452 3354 3353 
3451 3452 3354 3353 3760 3761 3663 3662 
3760 3761 3663 3662 298 299 209 208 
318 317 407 408 1907 1908 1810 1809 
1907 1908 1810 1809 2216 2217 2119 2118 
2216 2217 2119 2118 2525 2526 2428 2427 
2525 2526 2428 2427 2834 2835 2737 2736 
2834 2835 2737 2736 3143 3144 3046 3045 
3143 3144 3046 3045 3452 3453 3355 3354 
3452 3453 3355 3354 3761 3762 3664 3663 
3761 3762 3664 3663 299 300 210 209 
317 316 406 407 1908 1909 1811 1810 
1908 1909 1811 1810 2217 2218 2120 2119 
2217 2218 2120 2119 2526 2527 2429 2428 
2526 2527 2429 2428 2835 2836 2738 2737 
2835 2836 2738 2737 3144 3145 3047 3046 
3144 3145 3047 3046 3453 3454 3356 3355 
3453 3454 3356 3355 3762 3763 3665 3664 
3762 3763 3665 3664 300 301 211 210 
316 342 405 406 1909 1883 1812 1811 
1909 1883 1812 1811 2218 2192 2121 2120 
2218 2192 2121 2120 2527 2501 2430 2429 
2527 2501 2430 2429 2836 2810 2739 2738 
2836 2810 2739 2738 3145 3119 3048 3047 
3145 3119 3048 3047 3454 3428 3357 3356 
3454 3428 3357 3356 3763 3737 3666 3665 
3763 3737 3666 3665 301 275 212 211 
399 400 404 481 1818 1817 1813 1731 
1818 1817 1813 1731 2127 2126 2122 2040 
2127 2126 2122 2040 2436 2435 2431 2349 
2436 2435 2431 2349 2745 2744 2740 2658 
2745 2744 2740 2658 3054 3053 3049 2967 
3054 3053 3049 2967 3363 3362 3358 3276 
3363 3362 3358 3276 3672 3671 3667 3585 
3672 3671 3667 3585 218 217 213 136 
372 469 485 404 1853 1748 1727 1813 
1853 1748 1727 1813 2162 2057 2036 2122 
2162 2057 2036 2122 2471 2366 2345 2431 
2471 2366 2345 2431 2780 2675 2654 2740 
2780 2675 2654 2740 3089 2984 2963 3049 
3089 2984 2963 3049 3398 3293 3272 3358 
3398 3293 3272 3358 3707 3602 3581 3667 
3707 3602 3581 3667 245 148 132 213 
375 376 472 559 1845 1844 1743 1648 
1845 1844 1743 1648 2154 2153 2052 1957 
2154 2153 2052 1957 2463 2462 2361 2266 
2463 2462 2361 2266 2772 2771 2670 2575 
2772 2771 2670 2575 3081 3080 2979 2884 
3081 3080 2979 2884 3390 3389 3288 3193 
3390 3389 3288 3193 3699 3698 3597 3502 
3699 3698 3597 3502 242 241 145 58 
401 386 482 472 1816 1834 1730 1743 
1816 1834 1730 1743 2125 2143 2039 2052 
2125 2143 2039 2052 2434 2452 2348 2361 
2434 2452 2348 2361 2743 2761 2657 2670 
2743 2761 2657 2670 3052 3070 2966 2979 
3052 3070 2966 2979 3361 3379 3275 3288 
3361 3379 3275 3288 3670 3688 3584 3597 
3670 3688 3584 3597 216 231 135 145 
478 395 402 483 1737 1825 1815 1729 
1737 1825 1815 1729 2046 2134 2124 2038 
2046 2134 2124 2038 2355 2443 2433 2347 
2355 2443 2433 2347 2664 2752 2742 2656 
2664 2752 2742 2656 2973 3061 3051 2965 
2973 3061 3051 2965 3282 3370 3360 3274 
3282 3370 3360 3274 3591 3679 3669 3583 
3591 3679 3669 3583 139 222 215 134 
314 384 476 402 1911 1836 1739 1815 
1911 1836 1739 1815 2220 2145 2048 2124 
2220 2145 2048 2124 2529 2454 2357 2433 
2529 2454 2357 2433 2838 2763 2666 2742 
2838 2763 2666 2742 3147 3072 2975 3051 
3147 3072 2975 3051 3456 3381 3284 3360 
3456 3381 3284 3360 3765 3690 3593 3669 
3765 3690 3593 3669 303 233 141 215 
474 377 473 560 1741 1843 1742 1647 
1741 1843 1742 1647 2050 2152 2051 1956 
2050 2152 2051 1956 2359 2461 2360 2265 
2359 2461 2360 2265 2668 2770 2669 2574 
2668 2770 2669 2574 2977 3079 2978 2883 
2977 3079 2978 2883 3286 3388 3287 3192 
3286 3388 3287 3192 3595 3697 3596 3501 
3595 3697 3596 3501 143 240 144 57 
403 479 484 473 1814 1736 1728 1742 
1814 1736 1728 1742 2123 2045 2037 2051 
2123 2045 2037 2051 2432 2354 2346 2360 
2432 2354 2346 2360 2741 2663 2655 2669 
2741 2663 2655 2669 3050 2972 2964 2978 
3050 2972 2964 2978 3359 3281 3273 3287 
3359 3281 3273 3287 3668 3590 3582 3596 
3668 3590 3582 3596 214 138 133 144 
377 589 403 473 1843 1927 1814 1742 
1843 1927 1814 1742 2152 2236 2123 2051 
2152 2236 2123 2051 2461 2545 2432 2360 
2461 2545 2432 2360 2770 2854 2741 2669 
2770 2854 2741 2669 3079 3163 3050 2978 
3079 3163 3050 2978 3388 3472 3359 3287 
3388 3472 3359 3287 3697 3781 3668 3596 
3697 3781 3668 3596 240 28 214 144 
561 475 474 560 1646 1740 1741 1647 
1646 1740 1741 1647 1955 2049 2050 1956 
1955 2049 2050 1956 2264 2358 2359 2265 
2264 2358 2359 2265 2573 2667 2668 2574 
2573 2667 2668 2574 2882 2976 2977 2883 
2882 2976 2977 2883 3191 3285 3286 3192 
3191 3285 3286 3192 3500 3594 3595 3501 
3500 3594 3595 3501 56 142 143 57 
395 341 314 402 1825 1884 1911 1815 
1825 1884 1911 1815 2134 2193 2220 2124 
2134 2193 2220 2124 2443 2502 2529 2433 
2443 2502 2529 2433 2752 2811 2838 2742 
2752 2811 2838 2742 3061 3120 3147 3051 
3061 3120 3147 3051 3370 3429 3456 3360 
3370 3429 3456 3360 3679 3738 3765 3669 
3679 3738 3765 3669 222 276 303 215 
355 314 341 356 1870 1911 1884 1869 
1870 1911 1884 1869 2179 2220 2193 2178 
2179 2220 2193 2178 2488 2529 2502 2487 
2488 2529 2502 2487 2797 2838 2811 2796 
2797 2838 2811 2796 3106 3147 3120 3105 
3106 3147 3120 3105 3415 3456 3429 3414 
3415 3456 3429 3414 3724 3765 3738 3723 
3724 3765 3738 3723 262 303 276 261 
354 384 314 355 1871 1836 1911 1870 
1871 1836 1911 1870 2180 2145 2220 2179 
2180 2145 2220 2179 2489 2454 2529 2488 
2489 2454 2529 2488 2798 2763 2838 2797 
2798 2763 2838 2797 3107 3072 3147 3106 
3107 3072 3147 3106 3416 3381 3456 3415 
3416 3381 3456 3415 3725 3690 3765 3724 
3725 3690 3765 3724 263 233 303 262 
395 578 340 341 1825 1916 1885 1884 
1825 1916 1885 1884 2134 2225 2194 2193 
2134 2225 2194 2193 2443 2534 2503 2502 
2443 2534 2503 2502 2752 2843 2812 2811 
2752 2843 2812 2811 3061 3152 3121 3120 
3061 3152 3121 3120 3370 3461 3430 3429 
3370 3461 3430 3429 3679 3770 3739 3738 
3679 3770 3739 3738 222 39 277 276 
578 394 339 340 1916 1826 1886 1885 
1916 1826 1886 1885 2225 2135 2195 2194 
2225 2135 2195 2194 2534 2444 2504 2503 
2534 2444 2504 2503 2843 2753 2813 2812 
2843 2753 2813 2812 3152 3062 3122 3121 
3152 3062 3122 3121 3461 3371 3431 3430 
3461 3371 3431 3430 3770 3680 3740 3739 
3770 3680 3740 3739 39 223 278 277 
394 393 338 339 1826 1827 1887 1886 
1826 1827 1887 1886 2135 2136 2196 2195 
2135 2136 2196 2195 2444 2445 2505 2504 
2444 2445 2505 2504 2753 2754 2814 2813 
2753 2754 2814 2813 3062 3063 3123 3122 
3062 3063 3123 3122 3371 3372 3432 3431 
3371 3372 3432 3431 3680 3681 3741 3740 
3680 3681 3741 3740 223 224 279 278 
393 392 337 338 1827 1828 1888 1887 
1827 1828 1888 1887 2136 2137 2197 2196 
2136 2137 2197 2196 2445 2446 2506 2505 
2445 2446 2506 2505 2754 2755 2815 2814 
2754 2755 2815 2814 3063 3064 3124 3123 
3063 3064 3124 3123 3372 3373 3433 3432 
3372 3373 3433 3432 3681 3682 3742 3741 
3681 3682 3742 3741 224 225 280 279 
392 391 336 337 1828 1829 1889 1888 
1828 1829 1889 1888 2137 2138 2198 2197 
2137 2138 2198 2197 2446 2447 2507 2506 
2446 2447 2507 2506 2755 2756 2816 2815 
2755 2756 2816 2815 3064 3065 3125 3124 
3064 3065 3125 3124 3373 3374 3434 3433 
3373 3374 3434 3433 3682 3683 3743 3742 
3682 3683 3743 3742 225 226 281 280 
391 390 335 336 1829 1830 1890 1889 
1829 1830 1890 1889 2138 2139 2199 2198 
2138 2139 2199 2198 2447 2448 2508 2507 
2447 2448 2508 2507 2756 2757 2817 2816 
2756 2757 2817 2816 3065 3066 3126 3125 
3065 3066 3126 3125 3374 3375 3435 3434 
3374 3375 3435 3434 3683 3684 3744 3743 
3683 3684 3744 3743 226 227 282 281 
390 389 334 335 1830 1831 1891 1890 
1830 1831 1891 1890 2139 2140 2200 2199 
2139 2140 2200 2199 2448 2449 2509 2508 
2448 2449 2509 2508 2757 2758 2818 2817 
2757 2758 2818 2817 3066 3067 3127 3126 
3066 3067 3127 3126 3375 3376 3436 3435 
3375 3376 3436 3435 3684 3685 3745 3744 
3684 3685 3745 3744 227 228 283 282 
389 388 333 334 1831 1832 1892 1891 
1831 1832 1892 1891 2140 2141 2201 2200 
2140 2141 2201 2200 2449 2450 2510 2509 
2449 2450 2510 2509 2758 2759 2819 2818 
2758 2759 2819 2818 3067 3068 3128 3127 
3067 3068 3128 3127 3376 3377 3437 3436 
3376 3377 3437 3436 3685 3686 3746 3745 
3685 3686 3746 3745 228 229 284 283 
388 387 332 333 1832 1833 1893 1892 
1832 1833 1893 1892 2141 2142 2202 2201 
2141 2142 2202 2201 2450 2451 2511 2510 
2450 2451 2511 2510 2759 2760 2820 2819 
2759 2760 2820 2819 3068 3069 3129 3128 
3068 3069 3129 3128 3377 3378 3438 3437 
3377 3378 3438 3437 3686 3687 3747 3746 
3686 3687 3747 3746 229 230 285 284 
574 477 478 483 1633 1738 1737 1729 
1633 1738 1737 1729 1942 2047 2046 2038 
1942 2047 2046 2038 2251 2356 2355 2347 
2251 2356 2355 2347 2560 2665 2664 2656 
2560 2665 2664 2656 2869 2974 2973 2965 
2869 2974 2973 2965 3178 3283 3282 3274 
3178 3283 3282 3274 3487 3592 3591 3583 
3487 3592 3591 3583 43 140 139 134 
558 374 375 559 1649 1846 1845 1648 
1649 1846 1845 1648 1958 2155 2154 1957 
1958 2155 2154 1957 2267 2464 2463 2266 
2267 2464 2463 2266 2576 2773 2772 2575 
2576 2773 2772 2575 2885 3082 3081 2884 
2885 3082 3081 2884 3194 3391 3390 3193 
3194 3391 3390 3193 3503 3700 3699 3502 
3503 3700 3699 3502 59 243 242 58 
329 312 370 371 1896 1913 1855 1854 
1896 1913 1855 1854 2205 2222 2164 2163 
2205 2222 2164 2163 2514 2531 2473 2472 
2514 2531 2473 2472 2823 2840 2782 2781 
2823 2840 2782 2781 3132 3149 3091 3090 
3132 3149 3091 3090 3441 3458 3400 3399 
3441 3458 3400 3399 3750 3767 3709 3708 
3750 3767 3709 3708 288 305 247 246 
312 579 369 370 1913 1917 1856 1855 
1913 1917 1856 1855 2222 2226 2165 2164 
2222 2226 2165 2164 2531 2535 2474 2473 
2531 2535 2474 2473 2840 2844 2783 2782 
2840 2844 2783 2782 3149 3153 3092 3091 
3149 3153 3092 3091 3458 3462 3401 3400 
3458 3462 3401 3400 3767 3771 3710 3709 
3767 3771 3710 3709 305 38 248 247 
579 580 368 369 1917 1918 1857 1856 
1917 1918 1857 1856 2226 2227 2166 2165 
2226 2227 2166 2165 2535 2536 2475 2474 
2535 2536 2475 2474 2844 2845 2784 2783 
2844 2845 2784 2783 3153 3154 3093 3092 
3153 3154 3093 3092 3462 3463 3402 3401 
3462 3463 3402 3401 3771 3772 3711 3710 
3771 3772 3711 3710 38 37 249 248 
580 581 367 368 1918 1919 1858 1857 
1918 1919 1858 1857 2227 2228 2167 2166 
2227 2228 2167 2166 2536 2537 2476 2475 
2536 2537 2476 2475 2845 2846 2785 2784 
2845 2846 2785 2784 3154 3155 3094 3093 
3154 3155 3094 3093 3463 3464 3403 3402 
3463 3464 3403 3402 3772 3773 3712 3711 
3772 3773 3712 3711 37 36 250 249 
581 603 366 367 1919 1744 1859 1858 
1919 1744 1859 1858 2228 2053 2168 2167 
2228 2053 2168 2167 2537 2362 2477 2476 
2537 2362 2477 2476 2846 2671 2786 2785 
2846 2671 2786 2785 3155 2980 3095 3094 
3155 2980 3095 3094 3464 3289 3404 3403 
3464 3289 3404 3403 3773 3598 3713 3712 
3773 3598 3713 3712 36 14 251 250 
603 608 365 366 1744 1847 1860 1859 
1744 1847 1860 1859 2053 2156 2169 2168 
2053 2156 2169 2168 2362 2465 2478 2477 
2362 2465 2478 2477 2671 2774 2787 2786 
2671 2774 2787 2786 2980 3083 3096 3095 
2980 3083 3096 3095 3289 3392 3405 3404 
3289 3392 3405 3404 3598 3701 3714 3713 
3598 3701 3714 3713 14 9 252 251 
608 609 364 365 1847 1848 1861 1860 
1847 1848 1861 1860 2156 2157 2170 2169 
2156 2157 2170 2169 2465 2466 2479 2478 
2465 2466 2479 2478 2774 2775 2788 2787 
2774 2775 2788 2787 3083 3084 3097 3096 
3083 3084 3097 3096 3392 3393 3406 3405 
3392 3393 3406 3405 3701 3702 3715 3714 
3701 3702 3715 3714 9 8 253 252 
609 610 363 364 1848 1849 1862 1861 
1848 1849 1862 1861 2157 2158 2171 2170 
2157 2158 2171 2170 2466 2467 2480 2479 
2466 2467 2480 2479 2775 2776 2789 2788 
2775 2776 2789 2788 3084 3085 3098 3097 
3084 3085 3098 3097 3393 3394 3407 3406 
3393 3394 3407 3406 3702 3703 3716 3715 
3702 3703 3716 3715 8 7 254 253 
610 611 362 363 1849 1850 1863 1862 
1849 1850 1863 1862 2158 2159 2172 2171 
2158 2159 2172 2171 2467 2468 2481 2480 
2467 2468 2481 2480 2776 2777 2790 2789 
2776 2777 2790 2789 3085 3086 3099 3098 
3085 3086 3099 3098 3394 3395 3408 3407 
3394 3395 3408 3407 3703 3704 3717 3716 
3703 3704 3717 3716 7 6 255 254 
611 612 361 362 1850 1851 1864 1863 
1850 1851 1864 1863 2159 2160 2173 2172 
2159 2160 2173 2172 2468 2469 2482 2481 
2468 2469 2482 2481 2777 2778 2791 2790 
2777 2778 2791 2790 3086 3087 3100 3099 
3086 3087 3100 3099 3395 3396 3409 3408 
3395 3396 3409 3408 3704 3705 3718 3717 
3704 3705 3718 3717 6 5 256 255 
612 373 360 361 1851 1852 1865 1864 
1851 1852 1865 1864 2160 2161 2174 2173 
2160 2161 2174 2173 2469 2470 2483 2482 
2469 2470 2483 2482 2778 2779 2792 2791 
2778 2779 2792 2791 3087 3088 3101 3100 
3087 3088 3101 3100 3396 3397 3410 3409 
3396 3397 3410 3409 3705 3706 3719 3718 
3705 3706 3719 3718 5 244 257 256 
373 582 359 360 1852 1920 1866 1865 
1852 1920 1866 1865 2161 2229 2175 2174 
2161 2229 2175 2174 2470 2538 2484 2483 
2470 2538 2484 2483 2779 2847 2793 2792 
2779 2847 2793 2792 3088 3156 3102 3101 
3088 3156 3102 3101 3397 3465 3411 3410 
3397 3465 3411 3410 3706 3774 3720 3719 
3706 3774 3720 3719 244 35 258 257 
582 311 358 359 1920 1914 1867 1866 
1920 1914 1867 1866 2229 2223 2176 2175 
2229 2223 2176 2175 2538 2532 2485 2484 
2538 2532 2485 2484 2847 2841 2794 2793 
2847 2841 2794 2793 3156 3150 3103 3102 
3156 3150 3103 3102 3465 3459 3412 3411 
3465 3459 3412 3411 3774 3768 3721 3720 
3774 3768 3721 3720 35 306 259 258 
311 328 357 358 1914 1897 1868 1867 
1914 1897 1868 1867 2223 2206 2177 2176 
2223 2206 2177 2176 2532 2515 2486 2485 
2532 2515 2486 2485 2841 2824 2795 2794 
2841 2824 2795 2794 3150 3133 3104 3103 
3150 3133 3104 3103 3459 3442 3413 3412 
3459 3442 3413 3412 3768 3751 3722 3721 
3768 3751 3722 3721 306 289 260 259 
311 583 327 328 1914 1921 1898 1897 
1914 1921 1898 1897 2223 2230 2207 2206 
2223 2230 2207 2206 2532 2539 2516 2515 
2532 2539 2516 2515 2841 2848 2825 2824 
2841 2848 2825 2824 3150 3157 3134 3133 
3150 3157 3134 3133 3459 3466 3443 3442 
3459 3466 3443 3442 3768 3775 3752 3751 
3768 3775 3752 3751 306 34 290 289 
316 313 343 342 1909 1912 1882 1883 
1909 1912 1882 1883 2218 2221 2191 2192 
2218 2221 2191 2192 2527 2530 2500 2501 
2527 2530 2500 2501 2836 2839 2809 2810 
2836 2839 2809 2810 3145 3148 3118 3119 
3145 3148 3118 3119 3454 3457 3427 3428 
3454 3457 3427 3428 3763 3766 3736 3737 
3763 3766 3736 3737 301 304 274 275 
576 398 399 481 1626 1819 1818 1731 
1626 1819 1818 1731 1935 2128 2127 2040 
1935 2128 2127 2040 2244 2437 2436 2349 
2244 2437 2436 2349 2553 2746 2745 2658 
2553 2746 2745 2658 2862 3055 3054 2967 
2862 3055 3054 2967 3171 3364 3363 3276 
3171 3364 3363 3276 3480 3673 3672 3585 
3480 3673 3672 3585 41 219 218 136 
583 584 326 327 1921 1922 1899 1898 
1921 1922 1899 1898 2230 2231 2208 2207 
2230 2231 2208 2207 2539 2540 2517 2516 
2539 2540 2517 2516 2848 2849 2826 2825 
2848 2849 2826 2825 3157 3158 3135 3134 
3157 3158 3135 3134 3466 3467 3444 3443 
3466 3467 3444 3443 3775 3776 3753 3752 
3775 3776 3753 3752 34 33 291 290 
584 585 325 326 1922 1923 1900 1899 
1922 1923 1900 1899 2231 2232 2209 2208 
2231 2232 2209 2208 2540 2541 2518 2517 
2540 2541 2518 2517 2849 2850 2827 2826 
2849 2850 2827 2826 3158 3159 3136 3135 
3158 3159 3136 3135 3467 3468 3445 3444 
3467 3468 3445 3444 3776 3777 3754 3753 
3776 3777 3754 3753 33 32 292 291 
585 600 324 325 1923 1732 1901 1900 
1923 1732 1901 1900 2232 2041 2210 2209 
2232 2041 2210 2209 2541 2350 2519 2518 
2541 2350 2519 2518 2850 2659 2828 2827 
2850 2659 2828 2827 3159 2968 3137 3136 
3159 2968 3137 3136 3468 3277 3446 3445 
3468 3277 3446 3445 3777 3586 3755 3754 
3777 3586 3755 3754 32 17 293 292 
600 605 323 324 1732 1820 1902 1901 
1732 1820 1902 1901 2041 2129 2211 2210 
2041 2129 2211 2210 2350 2438 2520 2519 
2350 2438 2520 2519 2659 2747 2829 2828 
2659 2747 2829 2828 2968 3056 3138 3137 
2968 3056 3138 3137 3277 3365 3447 3446 
3277 3365 3447 3446 3586 3674 3756 3755 
3586 3674 3756 3755 17 12 294 293 
605 601 322 323 1820 1733 1903 1902 
1820 1733 1903 1902 2129 2042 2212 2211 
2129 2042 2212 2211 2438 2351 2521 2520 
2438 2351 2521 2520 2747 2660 2830 2829 
2747 2660 2830 2829 3056 2969 3139 3138 
3056 2969 3139 3138 3365 3278 3448 3447 
3365 3278 3448 3447 3674 3587 3757 3756 
3674 3587 3757 3756 12 16 295 294 
601 606 321 322 1733 1821 1904 1903 
1733 1821 1904 1903 2042 2130 2213 2212 
2042 2130 2213 2212 2351 2439 2522 2521 
2351 2439 2522 2521 2660 2748 2831 2830 
2660 2748 2831 2830 2969 3057 3140 3139 
2969 3057 3140 3139 3278 3366 3449 3448 
3278 3366 3449 3448 3587 3675 3758 3757 
3587 3675 3758 3757 16 11 296 295 
606 607 320 321 1821 1822 1905 1904 
1821 1822 1905 1904 2130 2131 2214 2213 
2130 2131 2214 2213 2439 2440 2523 2522 
2439 2440 2523 2522 2748 2749 2832 2831 
2748 2749 2832 2831 3057 3058 3141 3140 
3057 3058 3141 3140 3366 3367 3450 3449 
3366 3367 3450 3449 3675 3676 3759 3758 
3675 3676 3759 3758 11 10 297 296 
607 397 319 320 1822 1823 1906 1905 
1822 1823 1906 1905 2131 2132 2215 2214 
2131 2132 2215 2214 2440 2441 2524 2523 
2440 2441 2524 2523 2749 2750 2833 2832 
2749 2750 2833 2832 3058 3059 3142 3141 
3058 3059 3142 3141 3367 3368 3451 3450 
3367 3368 3451 3450 3676 3677 3760 3759 
3676 3677 3760 3759 10 220 298 297 
397 396 318 319 1823 1824 1907 1906 
1823 1824 1907 1906 2132 2133 2216 2215 
2132 2133 2216 2215 2441 2442 2525 2524 
2441 2442 2525 2524 2750 2751 2834 2833 
2750 2751 2834 2833 3059 3060 3143 3142 
3059 3060 3143 3142 3368 3369 3452 3451 
3368 3369 3452 3451 3677 3678 3761 3760 
3677 3678 3761 3760 220 221 299 298 
396 589 317 318 1824 1927 1908 1907 
1824 1927 1908 1907 2133 2236 2217 2216 
2133 2236 2217 2216 2442 2545 2526 2525 
2442 2545 2526 2525 2751 2854 2835 2834 
2751 2854 2835 2834 3060 3163 3144 3143 
3060 3163 3144 3143 3369 3472 3453 3452 
3369 3472 3453 3452 3678 3781 3762 3761 
3678 3781 3762 3761 221 28 300 299 
589 313 316 317 1927 1912 1909 1908 
1927 1912 1909 1908 2236 2221 2218 2217 
2236 2221 2218 2217 2545 2530 2527 2526 
2545 2530 2527 2526 2854 2839 2836 2835 
2854 2839 2836 2835 3163 3148 3145 3144 
3163 3148 3145 3144 3472 3457 3454 3453 
3472 3457 3454 3453 3781 3766 3763 3762 
3781 3766 3763 3762 28 304 301 300 
313 586 344 343 1912 1924 1881 1882 
1912 1924 1881 1882 2221 2233 2190 2191 
2221 2233 2190 2191 2530 2542 2499 2500 
2530 2542 2499 2500 2839 2851 2808 2809 
2839 2851 2808 2809 3148 3160 3117 3118 
3148 3160 3117 3118 3457 3469 3426 3427 
3457 3469 3426 3427 3766 3778 3735 3736 
3766 3778 3735 3736 304 31 273 274 
586 378 345 344 1924 1842 1880 1881 
1924 1842 1880 1881 2233 2151 2189 2190 
2233 2151 2189 2190 2542 2460 2498 2499 
2542 2460 2498 2499 2851 2769 2807 2808 
2851 2769 2807 2808 3160 3078 3116 3117 
3160 3078 3116 3117 3469 3387 3425 3426 
3469 3387 3425 3426 3778 3696 3734 3735 
3778 3696 3734 3735 31 239 272 273 
378 379 346 345 1842 1841 1879 1880 
1842 1841 1879 1880 2151 2150 2188 2189 
2151 2150 2188 2189 2460 2459 2497 2498 
2460 2459 2497 2498 2769 2768 2806 2807 
2769 2768 2806 2807 3078 3077 3115 3116 
3078 3077 3115 3116 3387 3386 3424 3425 
3387 3386 3424 3425 3696 3695 3733 3734 
3696 3695 3733 3734 239 238 271 272 
379 380 347 346 1841 1840 1878 1879 
1841 1840 1878 1879 2150 2149 2187 2188 
2150 2149 2187 2188 2459 2458 2496 2497 
2459 2458 2496 2497 2768 2767 2805 2806 
2768 2767 2805 2806 3077 3076 3114 3115 
3077 3076 3114 3115 3386 3385 3423 3424 
3386 3385 3423 3424 3695 3694 3732 3733 
3695 3694 3732 3733 238 237 270 271 
380 381 348 347 1840 1839 1877 1878 
1840 1839 1877 1878 2149 2148 2186 2187 
2149 2148 2186 2187 2458 2457 2495 2496 
2458 2457 2495 2496 2767 2766 2804 2805 
2767 2766 2804 2805 3076 3075 3113 3114 
3076 3075 3113 3114 3385 3384 3422 3423 
3385 3384 3422 3423 3694 3693 3731 3732 
3694 3693 3731 3732 237 236 269 270 
381 382 349 348 1839 1838 1876 1877 
1839 1838 1876 1877 2148 2147 2185 2186 
2148 2147 2185 2186 2457 2456 2494 2495 
2457 2456 2494 2495 2766 2765 2803 2804 
2766 2765 2803 2804 3075 3074 3112 3113 
3075 3074 3112 3113 3384 3383 3421 3422 
3384 3383 3421 3422 3693 3692 3730 3731 
3693 3692 3730 3731 236 235 268 269 
382 383 350 349 1838 1837 1875 1876 
1838 1837 1875 1876 2147 2146 2184 2185 
2147 2146 2184 2185 2456 2455 2493 2494 
2456 2455 2493 2494 2765 2764 2802 2803 
2765 2764 2802 2803 3074 3073 3111 3112 
3074 3073 3111 3112 3383 3382 3420 3421 
3383 3382 3420 3421 3692 3691 3729 3730 
3692 3691 3729 3730 235 234 267 268 
383 385 351 350 1837 1835 1874 1875 
1837 1835 1874 1875 2146 2144 2183 2184 
2146 2144 2183 2184 2455 2453 2492 2493 
2455 2453 2492 2493 2764 2762 2801 2802 
2764 2762 2801 2802 3073 3071 3110 3111 
3073 3071 3110 3111 3382 3380 3419 3420 
3382 3380 3419 3420 3691 3689 3728 3729 
3691 3689 3728 3729 234 232 266 267 
385 384 352 351 1835 1836 1873 1874 
1835 1836 1873 1874 2144 2145 2182 2183 
2144 2145 2182 2183 2453 2454 2491 2492 
2453 2454 2491 2492 2762 2763 2800 2801 
2762 2763 2800 2801 3071 3072 3109 3110 
3071 3072 3109 3110 3380 3381 3418 3419 
3380 3381 3418 3419 3689 3690 3727 3728 
3689 3690 3727 3728 232 233 265 266 
385 567 476 384 1835 1640 1739 1836 
1835 1640 1739 1836 2144 1949 2048 2145 
2144 1949 2048 2145 2453 2258 2357 2454 
2453 2258 2357 2454 2762 2567 2666 2763 
2762 2567 2666 2763 3071 2876 2975 3072 
3071 2876 2975 3072 3380 3185 3284 3381 
3380 3185 3284 3381 3689 3494 3593 3690 
3689 3494 3593 3690 232 50 141 233 
383 566 567 385 1837 1641 1640 1835 
1837 1641 1640 1835 2146 1950 1949 2144 
2146 1950 1949 2144 2455 2259 2258 2453 
2455 2259 2258 2453 2764 2568 2567 2762 
2764 2568 2567 2762 3073 2877 2876 3071 
3073 2877 2876 3071 3382 3186 3185 3380 
3382 3186 3185 3380 3691 3495 3494 3689 
3691 3495 3494 3689 234 51 50 232 
382 565 566 383 1838 1642 1641 1837 
1838 1642 1641 1837 2147 1951 1950 2146 
2147 1951 1950 2146 2456 2260 2259 2455 
2456 2260 2259 2455 2765 2569 2568 2764 
2765 2569 2568 2764 3074 2878 2877 3073 
3074 2878 2877 3073 3383 3187 3186 3382 
3383 3187 3186 3382 3692 3496 3495 3691 
3692 3496 3495 3691 235 52 51 234 
381 564 565 382 1839 1643 1642 1838 
1839 1643 1642 1838 2148 1952 1951 2147 
2148 1952 1951 2147 2457 2261 2260 2456 
2457 2261 2260 2456 2766 2570 2569 2765 
2766 2570 2569 2765 3075 2879 2878 3074 
3075 2879 2878 3074 3384 3188 3187 3383 
3384 3188 3187 3383 3693 3497 3496 3692 
3693 3497 3496 3692 236 53 52 235 
380 563 564 381 1840 1644 1643 1839 
1840 1644 1643 1839 2149 1953 1952 2148 
2149 1953 1952 2148 2458 2262 2261 2457 
2458 2262 2261 2457 2767 2571 2570 2766 
2767 2571 2570 2766 3076 2880 2879 3075 
3076 2880 2879 3075 3385 3189 3188 3384 
3385 3189 3188 3384 3694 3498 3497 3693 
3694 3498 3497 3693 237 54 53 236 
379 562 563 380 1841 1645 1644 1840 
1841 1645 1644 1840 2150 1954 1953 2149 
2150 1954 1953 2149 2459 2263 2262 2458 
2459 2263 2262 2458 2768 2572 2571 2767 
2768 2572 2571 2767 3077 2881 2880 3076 
3077 2881 2880 3076 3386 3190 3189 3385 
3386 3190 3189 3385 3695 3499 3498 3694 
3695 3499 3498 3694 238 55 54 237 
379 475 561 562 1841 1740 1646 1645 
1841 1740 1646 1645 2150 2049 1955 1954 
2150 2049 1955 1954 2459 2358 2264 2263 
2459 2358 2264 2263 2768 2667 2573 2572 
2768 2667 2573 2572 3077 2976 2882 2881 
3077 2976 2882 2881 3386 3285 3191 3190 
3386 3285 3191 3190 3695 3594 3500 3499 
3695 3594 3500 3499 238 142 56 55 
378 474 475 379 1842 1741 1740 1841 
1842 1741 1740 1841 2151 2050 2049 2150 
2151 2050 2049 2150 2460 2359 2358 2459 
2460 2359 2358 2459 2769 2668 2667 2768 
2769 2668 2667 2768 3078 2977 2976 3077 
3078 2977 2976 3077 3387 3286 3285 3386 
3387 3286 3285 3386 3696 3595 3594 3695 
3696 3595 3594 3695 239 143 142 238 
586 377 474 378 1924 1843 1741 1842 
1924 1843 1741 1842 2233 2152 2050 2151 
2233 2152 2050 2151 2542 2461 2359 2460 
2542 2461 2359 2460 2851 2770 2668 2769 
2851 2770 2668 2769 3160 3079 2977 3078 
3160 3079 2977 3078 3469 3388 3286 3387 
3469 3388 3286 3387 3778 3697 3595 3696 
3778 3697 3595 3696 31 240 143 239 
313 589 377 586 1912 1927 1843 1924 
1912 1927 1843 1924 2221 2236 2152 2233 
2221 2236 2152 2233 2530 2545 2461 2542 
2530 2545 2461 2542 2839 2854 2770 2851 
2839 2854 2770 2851 3148 3163 3079 3160 
3148 3163 3079 3160 3457 3472 3388 3469 
3457 3472 3388 3469 3766 3781 3697 3778 
3766 3781 3697 3778 304 28 240 31 
353 352 384 354 1872 1873 1836 1871 
1872 1873 1836 1871 2181 2182 2145 2180 
2181 2182 2145 2180 2490 2491 2454 2489 
2490 2491 2454 2489 2799 2800 2763 2798 
2799 2800 2763 2798 3108 3109 3072 3107 
3108 3109 3072 3107 3417 3418 3381 3416 
3417 3418 3381 3416 3726 3727 3690 3725 
3726 3727 3690 3725 264 265 233 263 
400 587 372 404 1817 1925 1853 1813 
1817 1925 1853 1813 2126 2234 2162 2122 
2126 2234 2162 2122 2435 2543 2471 2431 
2435 2543 2471 2431 2744 2852 2780 2740 
2744 2852 2780 2740 3053 3161 3089 3049 
3053 3161 3089 3049 3362 3470 3398 3358 
3362 3470 3398 3358 3671 3779 3707 3667 
3671 3779 3707 3667 217 30 245 213 
315 312 329 330 1910 1913 1896 1895 
1910 1913 1896 1895 2219 2222 2205 2204 
2219 2222 2205 2204 2528 2531 2514 2513 
2528 2531 2514 2513 2837 2840 2823 2822 
2837 2840 2823 2822 3146 3149 3132 3131 
3146 3149 3132 3131 3455 3458 3441 3440 
3455 3458 3441 3440 3764 3767 3750 3749 
3764 3767 3750 3749 302 305 288 287 
375 580 579 376 1845 1918 1917 1844 
1845 1918 1917 1844 2154 2227 2226 2153 
2154 2227 2226 2153 2463 2536 2535 2462 
2463 2536 2535 2462 2772 2845 2844 2771 
2772 2845 2844 2771 3081 3154 3153 3080 
3081 3154 3153 3080 3390 3463 3462 3389 
3390 3463 3462 3389 3699 3772 3771 3698 
3699 3772 3771 3698 242 37 38 241 
374 581 580 375 1846 1919 1918 1845 
1846 1919 1918 1845 2155 2228 2227 2154 
2155 2228 2227 2154 2464 2537 2536 2463 
2464 2537 2536 2463 2773 2846 2845 2772 
2773 2846 2845 2772 3082 3155 3154 3081 
3082 3155 3154 3081 3391 3464 3463 3390 
3391 3464 3463 3390 3700 3773 3772 3699 
3700 3773 3772 3699 243 36 37 242 
394 578 395 478 1826 1916 1825 1737 
1826 1916 1825 1737 2135 2225 2134 2046 
2135 2225 2134 2046 2444 2534 2443 2355 
2444 2534 2443 2355 2753 2843 2752 2664 
2753 2843 2752 2664 3062 3152 3061 2973 
3062 3152 3061 2973 3371 3461 3370 3282 
3371 3461 3370 3282 3680 3770 3679 3591 
3680 3770 3679 3591 223 39 222 139 
477 393 394 478 1738 1827 1826 1737 
1738 1827 1826 1737 2047 2136 2135 2046 
2047 2136 2135 2046 2356 2445 2444 2355 
2356 2445 2444 2355 2665 2754 2753 2664 
2665 2754 2753 2664 2974 3063 3062 2973 
2974 3063 3062 2973 3283 3372 3371 3282 
3283 3372 3371 3282 3592 3681 3680 3591 
3592 3681 3680 3591 140 224 223 139 
602 575 484 479 1735 1632 1728 1736 
1735 1632 1728 1736 2044 1941 2037 2045 
2044 1941 2037 2045 2353 2250 2346 2354 
2353 2250 2346 2354 2662 2559 2655 2663 
2662 2559 2655 2663 2971 2868 2964 2972 
2971 2868 2964 2972 3280 3177 3273 3281 
3280 3177 3273 3281 3589 3486 3582 3590 
3589 3486 3582 3590 15 42 133 138 
588 568 482 386 1926 1639 1730 1834 
1926 1639 1730 1834 2235 1948 2039 2143 
2235 1948 2039 2143 2544 2257 2348 2452 
2544 2257 2348 2452 2853 2566 2657 2761 
2853 2566 2657 2761 3162 2875 2966 3070 
3162 2875 2966 3070 3471 3184 3275 3379 
3471 3184 3275 3379 3780 3493 3584 3688 
3780 3493 3584 3688 29 49 135 231 
387 588 386 332 1833 1926 1834 1893 
1833 1926 1834 1893 2142 2235 2143 2202 
2142 2235 2143 2202 2451 2544 2452 2511 
2451 2544 2452 2511 2760 2853 2761 2820 
2760 2853 2761 2820 3069 3162 3070 3129 
3069 3162 3070 3129 3378 3471 3379 3438 
3378 3471 3379 3438 3687 3780 3688 3747 
3687 3780 3688 3747 230 29 231 285 
387 569 568 588 1833 1638 1639 1926 
1833 1638 1639 1926 2142 1947 1948 2235 
2142 1947 1948 2235 2451 2256 2257 2544 
2451 2256 2257 2544 2760 2565 2566 2853 
2760 2565 2566 2853 3069 2874 2875 3162 
3069 2874 2875 3162 3378 3183 3184 3471 
3378 3183 3184 3471 3687 3492 3493 3780 
3687 3492 3493 3780 230 48 49 29 
388 570 569 387 1832 1637 1638 1833 
1832 1637 1638 1833 2141 1946 1947 2142 
2141 1946 1947 2142 2450 2255 2256 2451 
2450 2255 2256 2451 2759 2564 2565 2760 
2759 2564 2565 2760 3068 2873 2874 3069 
3068 2873 2874 3069 3377 3182 3183 3378 
3377 3182 3183 3378 3686 3491 3492 3687 
3686 3491 3492 3687 229 47 48 230 
389 571 570 388 1831 1636 1637 1832 
1831 1636 1637 1832 2140 1945 1946 2141 
2140 1945 1946 2141 2449 2254 2255 2450 
2449 2254 2255 2450 2758 2563 2564 2759 
2758 2563 2564 2759 3067 2872 2873 3068 
3067 2872 2873 3068 3376 3181 3182 3377 
3376 3181 3182 3377 3685 3490 3491 3686 
3685 3490 3491 3686 228 46 47 229 
390 572 571 389 1830 1635 1636 1831 
1830 1635 1636 1831 2139 1944 1945 2140 
2139 1944 1945 2140 2448 2253 2254 2449 
2448 2253 2254 2449 2757 2562 2563 2758 
2757 2562 2563 2758 3066 2871 2872 3067 
3066 2871 2872 3067 3375 3180 3181 3376 
3375 3180 3181 3376 3684 3489 3490 3685 
3684 3489 3490 3685 227 45 46 228 
391 573 572 390 1829 1634 1635 1830 
1829 1634 1635 1830 2138 1943 1944 2139 
2138 1943 1944 2139 2447 2252 2253 2448 
2447 2252 2253 2448 2756 2561 2562 2757 
2756 2561 2562 2757 3065 2870 2871 3066 
3065 2870 2871 3066 3374 3179 3180 3375 
3374 3179 3180 3375 3683 3488 3489 3684 
3683 3488 3489 3684 226 44 45 227 
574 392 393 477 1633 1828 1827 1738 
1633 1828 1827 1738 1942 2137 2136 2047 
1942 2137 2136 2047 2251 2446 2445 2356 
2251 2446 2445 2356 2560 2755 2754 2665 
2560 2755 2754 2665 2869 3064 3063 2974 
2869 3064 3063 2974 3178 3373 3372 3283 
3178 3373 3372 3283 3487 3682 3681 3592 
3487 3682 3681 3592 43 225 224 140 
392 574 573 391 1828 1633 1634 1829 
1828 1633 1634 1829 2137 1942 1943 2138 
2137 1942 1943 2138 2446 2251 2252 2447 
2446 2251 2252 2447 2755 2560 2561 2756 
2755 2560 2561 2756 3064 2869 2870 3065 
3064 2869 2870 3065 3373 3178 3179 3374 
3373 3178 3179 3374 3682 3487 3488 3683 
3682 3487 3488 3683 225 43 44 226 
604 557 485 469 1747 1655 1727 1748 
1747 1655 1727 1748 2056 1964 2036 2057 
2056 1964 2036 2057 2365 2273 2345 2366 
2365 2273 2345 2366 2674 2582 2654 2675 
2674 2582 2654 2675 2983 2891 2963 2984 
2983 2891 2963 2984 3292 3200 3272 3293 
3292 3200 3272 3293 3601 3509 3581 3602 
3601 3509 3581 3602 13 60 132 148 
589 396 479 403 1927 1824 1736 1814 
1927 1824 1736 1814 2236 2133 2045 2123 
2236 2133 2045 2123 2545 2442 2354 2432 
2545 2442 2354 2432 2854 2751 2663 2741 
2854 2751 2663 2741 3163 3060 2972 3050 
3163 3060 2972 3050 3472 3369 3281 3359 
3472 3369 3281 3359 3781 3678 3590 3668 
3781 3678 3590 3668 28 221 138 214 
397 602 479 396 1823 1735 1736 1824 
1823 1735 1736 1824 2132 2044 2045 2133 
2132 2044 2045 2133 2441 2353 2354 2442 
2441 2353 2354 2442 2750 2662 2663 2751 
2750 2662 2663 2751 3059 2971 2972 3060 
3059 2971 2972 3060 3368 3280 3281 3369 
3368 3280 3281 3369 3677 3589 3590 3678 
3677 3589 3590 3678 220 15 138 221 
582 373 469 372 1920 1852 1748 1853 
1920 1852 1748 1853 2229 2161 2057 2162 
2229 2161 2057 2162 2538 2470 2366 2471 
2538 2470 2366 2471 2847 2779 2675 2780 
2847 2779 2675 2780 3156 3088 2984 3089 
3156 3088 2984 3089 3465 3397 3293 3398 
3465 3397 3293 3398 3774 3706 3602 3707 
3774 3706 3602 3707 35 244 148 245 
587 311 582 372 1925 1914 1920 1853 
1925 1914 1920 1853 2234 2223 2229 2162 
2234 2223 2229 2162 2543 2532 2538 2471 
2543 2532 2538 2471 2852 2841 2847 2780 
2852 2841 2847 2780 3161 3150 3156 3089 
3161 3150 3156 3089 3470 3459 3465 3398 
3470 3459 3465 3398 3779 3768 3774 3707 
3779 3768 3774 3707 30 306 35 245 
400 583 311 587 1817 1921 1914 1925 
1817 1921 1914 1925 2126 2230 2223 2234 
2126 2230 2223 2234 2435 2539 2532 2543 
2435 2539 2532 2543 2744 2848 2841 2852 
2744 2848 2841 2852 3053 3157 3150 3161 
3053 3157 3150 3161 3362 3466 3459 3470 
3362 3466 3459 3470 3671 3775 3768 3779 
3671 3775 3768 3779 217 34 306 30 
399 584 583 400 1818 1922 1921 1817 
1818 1922 1921 1817 2127 2231 2230 2126 
2127 2231 2230 2126 2436 2540 2539 2435 
2436 2540 2539 2435 2745 2849 2848 2744 
2745 2849 2848 2744 3054 3158 3157 3053 
3054 3158 3157 3053 3363 3467 3466 3362 
3363 3467 3466 3362 3672 3776 3775 3671 
3672 3776 3775 3671 218 33 34 217 
398 585 584 399 1819 1923 1922 1818 
1819 1923 1922 1818 2128 2232 2231 2127 
2128 2232 2231 2127 2437 2541 2540 2436 
2437 2541 2540 2436 2746 2850 2849 2745 
2746 2850 2849 2745 3055 3159 3158 3054 
3055 3159 3158 3054 3364 3468 3467 3363 
3364 3468 3467 3363 3673 3777 3776 3672 
3673 3777 3776 3672 219 32 33 218 
612 604 469 373 1851 1747 1748 1852 
1851 1747 1748 1852 2160 2056 2057 2161 
2160 2056 2057 2161 2469 2365 2366 2470 
2469 2365 2366 2470 2778 2674 2675 2779 
2778 2674 2675 2779 3087 2983 2984 3088 
3087 2983 2984 3088 3396 3292 3293 3397 
3396 3292 3293 3397 3705 3601 3602 3706 
3705 3601 3602 3706 5 13 148 244 
613 614 601 605 1928 1929 1733 1820 
1928 1929 1733 1820 2237 2238 2042 2129 
2237 2238 2042 2129 2546 2547 2351 2438 
2546 2547 2351 2438 2855 2856 2660 2747 
2855 2856 2660 2747 3164 3165 2969 3056 
3164 3165 2969 3056 3473 3474 3278 3365 
3473 3474 3278 3365 3782 3783 3587 3674 
3782 3783 3587 3674 4 3 16 12 
592 614 613 591 1629 1929 1928 1628 
1629 1929 1928 1628 1938 2238 2237 1937 
1938 2238 2237 1937 2247 2547 2546 2246 
2247 2547 2546 2246 2556 2856 2855 2555 
2556 2856 2855 2555 2865 3165 3164 2864 
2865 3165 3164 2864 3174 3474 3473 3173 
3174 3474 3473 3173 3483 3783 3782 3482 
3483 3783 3782 3482 25 3 4 26 
614 615 606 601 1929 1930 1821 1733 
1929 1930 1821 1733 2238 2239 2130 2042 
2238 2239 2130 2042 2547 2548 2439 2351 
2547 2548 2439 2351 2856 2857 2748 2660 
2856 2857 2748 2660 3165 3166 3057 2969 
3165 3166 3057 2969 3474 3475 3366 3278 
3474 3475 3366 3278 3783 3784 3675 3587 
3783 3784 3675 3587 3 2 11 16 
593 615 614 592 1630 1930 1929 1629 
1630 1930 1929 1629 1939 2239 2238 1938 
1939 2239 2238 1938 2248 2548 2547 2247 
2248 2548 2547 2247 2557 2857 2856 2556 
2557 2857 2856 2556 2866 3166 3165 2865 
2866 3166 3165 2865 3175 3475 3474 3174 
3175 3475 3474 3174 3484 3784 3783 3483 
3484 3784 3783 3483 24 2 3 25 
615 480 607 606 1930 1734 1822 1821 
1930 1734 1822 1821 2239 2043 2131 2130 
2239 2043 2131 2130 2548 2352 2440 2439 
2548 2352 2440 2439 2857 2661 2749 2748 
2857 2661 2749 2748 3166 2970 3058 3057 
3166 2970 3058 3057 3475 3279 3367 3366 
3475 3279 3367 3366 3784 3588 3676 3675 
3784 3588 3676 3675 2 137 10 11 
480 602 397 607 1734 1735 1823 1822 
1734 1735 1823 1822 2043 2044 2132 2131 
2043 2044 2132 2131 2352 2353 2441 2440 
2352 2353 2441 2440 2661 2662 2750 2749 
2661 2662 2750 2749 2970 2971 3059 3058 
2970 2971 3059 3058 3279 3280 3368 3367 
3279 3280 3368 3367 3588 3589 3677 3676 
3588 3589 3677 3676 137 15 220 10 
594 480 615 593 1631 1734 1930 1630 
1631 1734 1930 1630 1940 2043 2239 1939 
1940 2043 2239 1939 2249 2352 2548 2248 
2249 2352 2548 2248 2558 2661 2857 2557 
2558 2661 2857 2557 2867 2970 3166 2866 
2867 2970 3166 2866 3176 3279 3475 3175 
3176 3279 3475 3175 3485 3588 3784 3484 
3485 3588 3784 3484 23 137 2 24 
480 594 575 602 1734 1631 1632 1735 
1734 1631 1632 1735 2043 1940 1941 2044 
2043 1940 1941 2044 2352 2249 2250 2353 
2352 2249 2250 2353 2661 2558 2559 2662 
2661 2558 2559 2662 2970 2867 2868 2971 
2970 2867 2868 2971 3279 3176 3177 3280 
3279 3176 3177 3280 3588 3485 3486 3589 
3588 3485 3486 3589 137 23 42 15 
611 470 604 612 1850 1746 1747 1851 
1850 1746 1747 1851 2159 2055 2056 2160 
2159 2055 2056 2160 2468 2364 2365 2469 
2468 2364 2365 2469 2777 2673 2674 2778 
2777 2673 2674 2778 3086 2982 2983 3087 
3086 2982 2983 3087 3395 3291 3292 3396 
3395 3291 3292 3396 3704 3600 3601 3705 
3704 3600 3601 3705 6 147 13 5 
470 599 557 604 1746 1654 1655 1747 
1746 1654 1655 1747 2055 1963 1964 2056 
2055 1963 1964 2056 2364 2272 2273 2365 
2364 2272 2273 2365 2673 2581 2582 2674 
2673 2581 2582 2674 2982 2890 2891 2983 
2982 2890 2891 2983 3291 3199 3200 3292 
3291 3199 3200 3292 3600 3508 3509 3601 
3600 3508 3509 3601 147 18 60 13 
374 616 603 581 1846 1931 1744 1919 
1846 1931 1744 1919 2155 2240 2053 2228 
2155 2240 2053 2228 2464 2549 2362 2537 
2464 2549 2362 2537 2773 2858 2671 2846 
2773 2858 2671 2846 3082 3167 2980 3155 
3082 3167 2980 3155 3391 3476 3289 3464 
3391 3476 3289 3464 3700 3785 3598 3773 
3700 3785 3598 3773 243 1 14 36 
595 616 374 558 1650 1931 1846 1649 
1650 1931 1846 1649 1959 2240 2155 1958 
1959 2240 2155 1958 2268 2549 2464 2267 
2268 2549 2464 2267 2577 2858 2773 2576 
2577 2858 2773 2576 2886 3167 3082 2885 
2886 3167 3082 2885 3195 3476 3391 3194 
3195 3476 3391 3194 3504 3785 3700 3503 
3504 3785 3700 3503 22 1 243 59 
616 471 608 603 1931 1745 1847 1744 
1931 1745 1847 1744 2240 2054 2156 2053 
2240 2054 2156 2053 2549 2363 2465 2362 
2549 2363 2465 2362 2858 2672 2774 2671 
2858 2672 2774 2671 3167 2981 3083 2980 
3167 2981 3083 2980 3476 3290 3392 3289 
3476 3290 3392 3289 3785 3599 3701 3598 
3785 3599 3701 3598 1 146 9 14 
471 596 609 608 1745 1651 1848 1847 
1745 1651 1848 1847 2054 1960 2157 2156 
2054 1960 2157 2156 2363 2269 2466 2465 
2363 2269 2466 2465 2672 2578 2775 2774 
2672 2578 2775 2774 2981 2887 3084 3083 
2981 2887 3084 3083 3290 3196 3393 3392 
3290 3196 3393 3392 3599 3505 3702 3701 
3599 3505 3702 3701 146 21 8 9 
610 617 470 611 1849 1932 1746 1850 
1849 1932 1746 1850 2158 2241 2055 2159 
2158 2241 2055 2159 2467 2550 2364 2468 
2467 2550 2364 2468 2776 2859 2673 2777 
2776 2859 2673 2777 3085 3168 2982 3086 
3085 3168 2982 3086 3394 3477 3291 3395 
3394 3477 3291 3395 3703 3786 3600 3704 
3703 3786 3600 3704 7 0 147 6 
617 598 599 470 1932 1653 1654 1746 
1932 1653 1654 1746 2241 1962 1963 2055 
2241 1962 1963 2055 2550 2271 2272 2364 
2550 2271 2272 2364 2859 2580 2581 2673 
2859 2580 2581 2673 3168 2889 2890 2982 
3168 2889 2890 2982 3477 3198 3199 3291 
3477 3198 3199 3291 3786 3507 3508 3600 
3786 3507 3508 3600 0 19 18 147 
576 590 310 398 1626 1627 1933 1819 
1626 1627 1933 1819 1935 1936 2242 2128 
1935 1936 2242 2128 2244 2245 2551 2437 
2244 2245 2551 2437 2553 2554 2860 2746 
2553 2554 2860 2746 2862 2863 3169 3055 
2862 2863 3169 3055 3171 3172 3478 3364 
3171 3172 3478 3364 3480 3481 3787 3673 
3480 3481 3787 3673 41 27 307 219 
600 585 398 310 1732 1923 1819 1933 
1732 1923 1819 1933 2041 2232 2128 2242 
2041 2232 2128 2242 2350 2541 2437 2551 
2350 2541 2437 2551 2659 2850 2746 2860 
2659 2850 2746 2860 2968 3159 3055 3169 
2968 3159 3055 3169 3277 3468 3364 3478 
3277 3468 3364 3478 3586 3777 3673 3787 
3586 3777 3673 3787 17 32 219 307 
613 605 600 310 1928 1820 1732 1933 
1928 1820 1732 1933 2237 2129 2041 2242 
2237 2129 2041 2242 2546 2438 2350 2551 
2546 2438 2350 2551 2855 2747 2659 2860 
2855 2747 2659 2860 3164 3056 2968 3169 
3164 3056 2968 3169 3473 3365 3277 3478 
3473 3365 3277 3478 3782 3674 3586 3787 
3782 3674 3586 3787 4 12 17 307 
613 310 590 591 1928 1933 1627 1628 
1928 1933 1627 1628 2237 2242 1936 1937 
2237 2242 1936 1937 2546 2551 2245 2246 
2546 2551 2245 2246 2855 2860 2554 2555 
2855 2860 2554 2555 3164 3169 2863 2864 
3164 3169 2863 2864 3473 3478 3172 3173 
3473 3478 3172 3173 3782 3787 3481 3482 
3782 3787 3481 3482 4 307 27 26 
617 596 597 598 1932 1651 1652 1653 
1932 1651 1652 1653 2241 1960 1961 1962 
2241 1960 1961 1962 2550 2269 2270 2271 
2550 2269 2270 2271 2859 2578 2579 2580 
2859 2578 2579 2580 3168 2887 2888 2889 
3168 2887 2888 2889 3477 3196 3197 3198 
3477 3196 3197 3198 3786 3505 3506 3507 
3786 3505 3506 3507 0 21 20 19 
609 596 617 610 1848 1651 1932 1849 
1848 1651 1932 1849 2157 1960 2241 2158 
2157 1960 2241 2158 2466 2269 2550 2467 
2466 2269 2550 2467 2775 2578 2859 2776 
2775 2578 2859 2776 3084 2887 3168 3085 
3084 2887 3168 3085 3393 3196 3477 3394 
3393 3196 3477 3394 3702 3505 3786 3703 
3702 3505 3786 3703 8 21 0 7 
309 700 701 597 1934 976 975 1652 
1934 976 975 1652 2243 969 968 1961 
2243 969 968 1961 2552 962 961 2270 
2552 962 961 2270 2861 955 954 2579 
2861 955 954 2579 3170 948 947 2888 
3170 948 947 2888 3479 941 940 3197 
3479 941 940 3197 3788 934 933 3506 
3788 934 933 3506 308 983 982 20 
595 699 700 309 1650 977 976 1934 
1650 977 976 1934 1959 970 969 2243 
1959 970 969 2243 2268 963 962 2552 
2268 963 962 2552 2577 956 955 2861 
2577 956 955 2861 2886 949 948 3170 
2886 949 948 3170 3195 942 941 3479 
3195 942 941 3479 3504 935 934 3788 
3504 935 934 3788 22 984 983 308 
471 616 595 309 1745 1931 1650 1934 
1745 1931 1650 1934 2054 2240 1959 2243 
2054 2240 1959 2243 2363 2549 2268 2552 
2363 2549 2268 2552 2672 2858 2577 2861 
2672 2858 2577 2861 2981 3167 2886 3170 
2981 3167 2886 3170 3290 3476 3195 3479 
3290 3476 3195 3479 3599 3785 3504 3788 
3599 3785 3504 3788 146 1 22 308 
471 309 597 596 1745 1934 1652 1651 
1745 1934 1652 1651 2054 2243 1961 1960 
2054 2243 1961 1960 2363 2552 2270 2269 
2363 2552 2270 2269 2672 2861 2579 2578 
2672 2861 2579 2578 2981 3170 2888 2887 
2981 3170 2888 2887 3290 3479 3197 3196 
3290 3479 3197 3196 3599 3788 3506 3505 
3599 3788 3506 3505 146 308 20 21 
315 401 472 376 1910 1816 1743 1844 
1910 1816 1743 1844 2219 2125 2052 2153 
2219 2125 2052 2153 2528 2434 2361 2462 
2528 2434 2361 2462 2837 2743 2670 2771 
2837 2743 2670 2771 3146 3052 2979 3080 
3146 3052 2979 3080 3455 3361 3288 3389 
3455 3361 3288 3389 3764 3670 3597 3698 
3764 3670 3597 3698 302 216 145 241 
579 312 315 376 1917 1913 1910 1844 
1917 1913 1910 1844 2226 2222 2219 2153 
2226 2222 2219 2153 2535 2531 2528 2462 
2535 2531 2528 2462 2844 2840 2837 2771 
2844 2840 2837 2771 3153 3149 3146 3080 
3153 3149 3146 3080 3462 3458 3455 3389 
3462 3458 3455 3389 3771 3767 3764 3698 
3771 3767 3764 3698 38 305 302 241 
315 330 331 401 1910 1895 1894 1816 
1910 1895 1894 1816 2219 2204 2203 2125 
2219 2204 2203 2125 2528 2513 2512 2434 
2528 2513 2512 2434 2837 2822 2821 2743 
2837 2822 2821 2743 3146 3131 3130 3052 
3146 3131 3130 3052 3455 3440 3439 3361 
3455 3440 3439 3361 3764 3749 3748 3670 
3764 3749 3748 3670 302 287 286 216 
401 331 332 386 1816 1894 1893 1834 
1816 1894 1893 1834 2125 2203 2202 2143 
2125 2203 2202 2143 2434 2512 2511 2452 
2434 2512 2511 2452 2743 2821 2820 2761 
2743 2821 2820 2761 3052 3130 3129 3070 
3052 3130 3129 3070 3361 3439 3438 3379 
3361 3439 3438 3379 3670 3748 3747 3688 
3670 3748 3747 3688 216 286 285 231 
</DataArray>
<DataArray type="Int64" Name="offsets" format="ascii">
8
16
24
32
40
48
56
64
72
80
88
96
104
112
120
128
136
144
152
160
168
176
184
192
200
208
216
224
232
240
248
256
264
272
280
288
296
304
312
320
328
336
344
352
360
368
376
384
392
400
408
416
424
432
440
448
456
464
472
480
488
496
504
512
520
528
536
544
552
560
568
576
584
592
600
608
616
624
632
640
648
656
664
672
680
688
696
704
712
720
728
736
744
752
760
768
776
784
792
800
808
816
824
832
840
848
856
864
872
880
888
896
904
912
920
928
936
944
952
960
968
976
984
992
1000
1008
1016
1024
1032
1040
1048
1056
1064
1072
1080
1088
1096
1104
1112
1120
1128
1136
1144
1152
1160
1168
1176
1184
1192
1200
1208
1216
1224
1232
1240
1248
1256
1264
1272
1280
1288
1296
1304
1312
1320
1328
1336
1344
1352
1360
1368
1376
1384
1392
1400
1408
1416
1424
1432
1440
1448
1456
1464
1472
1480
1488
1496
1504
1512
1520
1528
1536
1544
1552
1560
1568
1576
1584
1592
1600
1608
1616
1624
1632
1640
1648
1656
1664
1672
1680
1688
1696
1704
1712
1720
1728
1736
1744
1752
1760
1768
1776
1784
1792
1800
1808
1816
1824
1832
1840
1848
1856
1864
1872
1880
1888
1896
1904
1912
1920
1928
1936
1944
1952
1960
1968
1976
1984
1992
2000
2008
2016
2024
2032
2040
2048
2056
2064
2072
2080
2088
2096
2104
2112
2120
2128
2136
2144
2152
2160
2168
2176
2184
2192
2200
2208
2216
2224
2232
2240
2248
2256
2264
2272
2280
2288
2296
2304
2312
2320
2328
2336
2344
2352
2360
2368
2376
2384
2392
2400
2408
2416
2424
2432
2440
2448
2456
2464
2472
2480
2488
2496
2504
2512
2520
2528
2536
2544
2552
2560
2568
2576
2584
2592
2600
2608
2616
2624
2632
2640
2648
2656
2664
2672
2680
2688
2696
2704
2712
2720
2728
2736
2744
2752
2760
2768
2776
2784
2792
2800
2808
2816
2824
2832
2840
2848
2856
2864
2872
2880
2888
2896
2904
2912
2920
2928
2936
2944
2952
2960
2968
2976
2984
2992
3000
3008
3016
3024
3032
3040
3048
3056
3064
3072
3080
3088
3096
3104
3112
3120
3128
3136
3144
3152
3160
3168
3176
3184
3192
3200
3208
3216
3224
3232
3240
3248
3256
3264
3272
3280
3288
3296
3304
3312
3320
3328
3336
3344
3352
3360
3368
3376
3384
3392
3400
3408
3416
3424
3432
3440
3448
3456
3464
3472
3480
3488
3496
3504
3512
3520
3528
3536
3544
3552
3560
3568
3576
3584
3592
3600
3608
3616
3624
3632
3640
3648
3656
3664
3672
3680
3688
3696
3704
3712
3720
3728
3736
3744
3752
3760
3768
3776
3784
3792
3800
3808
3816
3824
3832
3840
3848
3856
3864
3872
3880
3888
3896
3904
3912
3920
3928
3936
3944
3952
3960
3968
3976
3984
3992
4000
4008
4016
4024
4032
4040
4048
4056
4064
4072
4080
4088
4096
4104
4112
4120
4128
4136
4144
4152
4160
4168
4176
4184
4192
4200
4208
4216
4224
4232
4240
4248
4256
4264
4272
4280
4288
4296
4304
4312
4320
4328
4336
4344
4352
4360
4368
4376
4384
4392
4400
4408
4416
4424
4432
4440
4448
4456
4464
4472
4480
4488
4496
4504
4512
4520
4528
4536
4544
4552
4560
4568
4576
4584
4592
4600
4608
4616
4624
4632
4640
4648
4656
4664
4672
4680
4688
4696
4704
4712
4720
4728
4736
4744
4752
4760
4768
4776
4784
4792
4800
4808
4816
4824
4832
4840
4848
4856
4864
4872
4880
4888
4896
4904
4912
4920
4928
4936
4944
4952
4960
4968
4976
4984
4992
5000
5008
5016
5024
5032
5040
5048
5056
5064
5072
5080
5088
5096
5104
5112
5120
5128
5136
5144
5152
5160
5168
5176
5184
5192
5200
5208
5216
5224
5232
5240
5248
5256
5264
5272
5280
5288
5296
5304
5312
5320
5328
5336
5344
5352
5360
5368
5376
5384
5392
5400
5408
5416
5424
5432
5440
5448
5456
5464
5472
5480
5488
5496
5504
5512
5520
5528
5536
5544
5552
5560
5568
5576
5584
5592
5600
5608
5616
5624
5632
5640
5648
5656
5664
5672
5680
5688
5696
5704
5712
5720
5728
5736
5744
5752
5760
5768
5776
5784
5792
5800
5808
5816
5824
5832
5840
5848
5856
5864
5872
5880
5888
5896
5904
5912
5920
5928
5936
5944
5952
5960
5968
5976
5984
5992
6000
6008
6016
6024
6032
6040
6048
6056
6064
6072
6080
6088
6096
6104
6112
6120
6128
6136
6144
6152
6160
6168
6176
6184
6192
6200
6208
6216
6224
6232
6240
6248
6256
6264
6272
6280
6288
6296
6304
6312
6320
6328
6336
6344
6352
6360
6368
6376
6384
6392
6400
6408
6416
6424
6432
6440
6448
6456
6464
6472
6480
6488
6496
6504
6512
6520
6528
6536
6544
6552
6560
6568
6576
6584
6592
6600
6608
6616
6624
6632
6640
6648
6656
6664
6672
6680
6688
6696
6704
6712
6720
6728
6736
6744
6752
6760
6768
6776
6784
6792
6800
6808
6816
6824
6832
6840
6848
6856
6864
6872
6880
6888
6896
6904
6912
6920
6928
6936
6944
6952
6960
6968
6976
6984
6992
7000
7008
7016
7024
7032
7040
7048
7056
7064
7072
7080
7088
7096
7104
7112
7120
7128
7136
7144
7152
7160
7168
7176
7184
7192
7200
7208
7216
7224
7232
7240
7248
7256
7264
7272
7280
7288
7296
7304
7312
7320
7328
7336
7344
7352
7360
7368
7376
7384
7392
7400
7408
7416
7424
7432
7440
7448
7456
7464
7472
7480
7488
7496
7504
7512
7520
7528
7536
7544
7552
7560
7568
7576
7584
7592
7600
7608
7616
7624
7632
7640
7648
7656
7664
7672
7680
7688
7696
7704
7712
7720
7728
7736
7744
7752
7760
7768
7776
7784
7792
7800
7808
7816
7824
7832
7840
7848
7856
7864
7872
7880
7888
7896
7904
7912
7920
7928
7936
7944
7952
7960
7968
7976
7984
7992
8000
8008
8016
8024
8032
8040
8048
8056
8064
8072
8080
8088
8096
8104
8112
8120
8128
8136
8144
8152
8160
8168
8176
8184
8192
8200
8208
8216
8224
8232
8240
8248
8256
8264
8272
8280
8288
8296
8304
8312
8320
8328
8336
8344
8352
8360
8368
8376
8384
8392
8400
8408
8416
8424
8432
8440
8448
8456
8464
8472
8480
8488
8496
8504
8512
8520
8528
8536
8544
8552
8560
8568
8576
8584
8592
8600
8608
8616
8624
8632
8640
8648
8656
8664
8672
8680
8688
8696
8704
8712
8720
8728
8736
8744
8752
8760
8768
8776
8784
8792
8800
8808
8816
8824
8832
8840
8848
8856
8864
8872
8880
8888
8896
8904
8912
8920
8928
8936
8944
8952
8960
8968
8976
8984
8992
9000
9008
9016
9024
9032
9040
9048
9056
9064
9072
9080
9088
9096
9104
9112
9120
9128
9136
9144
9152
9160
9168
9176
9184
9192
9200
9208
9216
9224
9232
9240
9248
9256
9264
9272
9280
9288
9296
9304
9312
9320
9328
9336
9344
9352
9360
9368
9376
9384
9392
9400
9408
9416
9424
9432
9440
9448
9456
9464
9472
9480
9488
9496
9504
9512
9520
9528
9536
9544
9552
9560
9568
9576
9584
9592
9600
9608
9616
9624
9632
9640
9648
9656
9664
9672
9680
9688
9696
9704
9712
9720
9728
9736
9744
9752
9760
9768
9776
9784
9792
9800
9808
9816
9824
9832
9840
9848
9856
9864
9872
9880
9888
9896
9904
9912
9920
9928
9936
9944
9952
9960
9968
9976
9984
9992
10000
10008
10016
10024
10032
10040
10048
10056
10064
10072
10080
10088
10096
10104
10112
10120
10128
10136
10144
10152
10160
10168
10176
10184
10192
10200
10208
10216
10224
10232
10240
10248
10256
10264
10272
10280
10288
10296
10304
10312
10320
10328
10336
10344
10352
10360
10368
10376
10384
10392
10400
10408
10416
10424
10432
10440
10448
10456
10464
10472
10480
10488
10496
10504
10512
10520
10528
10536
10544
10552
10560
10568
10576
10584
10592
10600
10608
10616
10624
10632
10640
10648
10656
10664
10672
10680
10688
10696
10704
10712
10720
10728
10736
10744
10752
10760
10768
10776
10784
10792
10800
10808
10816
10824
10832
10840
10848
10856
10864
10872
10880
10888
10896
10904
10912
10920
10928
10936
10944
10952
10960
10968
10976
10984
10992
11000
11008
11016
11024
11032
11040
11048
11056
11064
11072
11080
11088
11096
11104
11112
11120
11128
11136
11144
11152
11160
11168
11176
11184
11192
11200
11208
11216
11224
11232
11240
11248
11256
11264
11272
11280
11288
11296
11304
11312
11320
11328
11336
11344
11352
11360
11368
11376
11384
11392
11400
11408
11416
11424
11432
11440
11448
11456
11464
11472
11480
11488
11496
11504
11512
11520
11528
11536
11544
11552
11560
11568
11576
11584
11592
11600
11608
11616
11624
11632
11640
11648
11656
11664
11672
11680
11688
11696
11704
11712
11720
11728
11736
11744
11752
11760
11768
11776
11784
11792
11800
11808
11816
11824
11832
11840
11848
11856
11864
11872
11880
11888
11896
11904
11912
11920
11928
11936
11944
11952
11960
11968
11976
11984
11992
12000
12008
12016
12024
12032
12040
12048
12056
12064
12072
12080
12088
12096
12104
12112
12120
12128
12136
12144
12152
12160
12168
12176
12184
12192
12200
12208
12216
12224
12232
12240
12248
12256
12264
12272
12280
12288
12296
12304
12312
12320
12328
12336
12344
12352
12360
12368
12376
12384
12392
12400
12408
12416
12424
12432
12440
12448
12456
12464
12472
12480
12488
12496
12504
12512
12520
12528
12536
12544
12552
12560
12568
12576
12584
12592
12600
12608
12616
12624
12632
12640
12648
12656
12664
12672
12680
12688
12696
12704
12712
12720
12728
12736
12744
12752
12760
12768
12776
12784
12792
12800
12808
12816
12824
12832
12840
12848
12856
12864
12872
12880
12888
12896
12904
12912
12920
12928
12936
12944
12952
12960
12968
12976
12984
12992
13000
13008
13016
13024
13032
13040
13048
13056
13064
13072
13080
13088
13096
13104
13112
13120
13128
13136
13144
13152
13160
13168
13176
13184
13192
13200
13208
13216
13224
13232
13240
13248
13256
13264
13272
13280
13288
13296
13304
13312
13320
13328
13336
13344
13352
13360
13368
13376
13384
13392
13400
13408
13416
13424
13432
13440
13448
13456
13464
13472
13480
13488
13496
13504
13512
13520
13528
13536
13544
13552
13560
13568
13576
13584
13592
13600
13608
13616
13624
13632
13640
13648
13656
13664
13672
13680
13688
13696
13704
13712
13720
13728
13736
13744
13752
13760
13768
13776
13784
13792
13800
13808
13816
13824
13832
13840
13848
13856
13864
13872
13880
13888
13896
13904
13912
13920
13928
13936
13944
13952
13960
13968
13976
13984
13992
14000
14008
14016
14024
14032
14040
14048
14056
14064
14072
14080
14088
14096
14104
14112
14120
14128
14136
14144
14152
14160
14168
14176
14184
14192
14200
14208
14216
14224
14232
14240
14248
14256
14264
14272
14280
14288
14296
14304
14312
14320
14328
14336
14344
14352
14360
14368
14376
14384
14392
14400
14408
14416
14424
14432
14440
14448
14456
14464
14472
14480
14488
14496
14504
14512
14520
14528
14536
14544
14552
14560
14568
14576
14584
14592
14600
14608
14616
14624
14632
14640
14648
14656
14664
14672
14680
14688
14696
14704
14712
14720
14728
14736
14744
14752
14760
14768
14776
14784
14792
14800
14808
14816
14824
14832
14840
14848
14856
14864
14872
14880
14888
14896
14904
14912
14920
14928
14936
14944
14952
14960
14968
14976
14984
14992
15000
15008
15016
15024
15032
15040
15048
15056
15064
15072
15080
15088
15096
15104
15112
15120
15128
15136
15144
15152
15160
15168
15176
15184
15192
15200
15208
15216
15224
15232
15240
15248
15256
15264
15272
15280
15288
15296
15304
15312
15320
15328
15336
15344
15352
15360
15368
15376
15384
15392
15400
15408
15416
15424
15432
15440
15448
15456
15464
15472
15480
15488
15496
15504
15512
15520
15528
15536
15544
15552
15560
15568
15576
15584
15592
15600
15608
15616
15624
15632
15640
15648
15656
15664
15672
15680
15688
15696
15704
15712
15720
15728
15736
15744
15752
15760
15768
15776
15784
15792
15800
15808
15816
15824
15832
15840
15848
15856
15864
15872
15880
15888
15896
15904
15912
15920
15928
15936
15944
15952
15960
15968
15976
15984
15992
16000
16008
16016
16024
16032
16040
16048
16056
16064
16072
16080
16088
16096
16104
16112
16120
16128
16136
16144
16152
16160
16168
16176
16184
16192
16200
16208
16216
16224
16232
16240
16248
16256
16264
16272
16280
16288
16296
16304
16312
16320
16328
16336
16344
16352
16360
16368
16376
16384
16392
16400
16408
16416
16424
16432
16440
16448
16456
16464
16472
16480
16488
16496
16504
16512
16520
16528
16536
16544
16552
16560
16568
16576
16584
16592
16600
16608
16616
16624
16632
16640
16648
16656
16664
16672
16680
16688
16696
16704
16712
16720
16728
16736
16744
16752
16760
16768
16776
16784
16792
16800
16808
16816
16824
16832
16840
16848
16856
16864
16872
16880
16888
16896
16904
16912
16920
16928
16936
16944
16952
16960
16968
16976
16984
16992
17000
17008
17016
17024
17032
17040
17048
17056
17064
17072
17080
17088
17096
17104
17112
17120
17128
17136
17144
17152
17160
17168
17176
17184
17192
17200
17208
17216
17224
17232
17240
17248
17256
17264
17272
17280
17288
17296
17304
17312
17320
17328
17336
17344
17352
17360
17368
17376
17384
17392
17400
17408
17416
17424
17432
17440
17448
17456
17464
17472
17480
17488
17496
17504
17512
17520
17528
17536
17544
17552
17560
17568
17576
17584
17592
17600
17608
17616
17624
17632
17640
17648
17656
17664
17672
17680
17688
17696
17704
17712
17720
17728
17736
17744
17752
17760
17768
17776
17784
17792
17800
17808
17816
17824
17832
17840
17848
17856
17864
17872
17880
17888
17896
17904
17912
17920
17928
17936
17944
17952
17960
17968
17976
17984
17992
18000
18008
18016
18024
18032
18040
18048
18056
18064
18072
18080
18088
18096
18104
18112
18120
18128
18136
18144
18152
18160
18168
18176
18184
18192
18200
18208
18216
18224
18232
18240
18248
18256
18264
18272
18280
18288
18296
18304
18312
18320
18328
18336
18344
18352
18360
18368
18376
18384
18392
18400
18408
18416
18424
18432
18440
18448
18456
18464
18472
18480
18488
18496
18504
18512
18520
18528
18536
18544
18552
18560
18568
18576
18584
18592
18600
18608
18616
18624
18632
18640
18648
18656
18664
18672
18680
18688
18696
18704
18712
18720
18728
18736
18744
18752
18760
18768
18776
18784
18792
18800
18808
18816
18824
18832
18840
18848
18856
18864
18872
18880
18888
18896
18904
18912
18920
18928
18936
18944
18952
18960
18968
18976
18984
18992
19000
19008
19016
19024
19032
19040
19048
19056
19064
19072
19080
19088
19096
19104
19112
19120
19128
19136
19144
19152
19160
19168
19176
19184
19192
19200
19208
19216
19224
19232
19240
19248
19256
19264
19272
19280
19288
19296
19304
19312
19320
19328
19336
19344
19352
19360
19368
19376
19384
19392
19400
19408
19416
19424
19432
19440
19448
19456
19464
19472
19480
19488
19496
19504
19512
19520
19528
19536
19544
19552
19560
19568
19576
19584
19592
19600
19608
19616
19624
19632
19640
19648
19656
19664
19672
19680
19688
19696
19704
19712
19720
19728
19736
19744
19752
19760
19768
19776
19784
19792
19800
19808
19816
19824
19832
19840
19848
19856
19864
19872
19880
19888
19896
19904
19912
19920
19928
19936
19944
19952
19960
19968
19976
19984
19992
20000
20008
20016
20024
20032
20040
20048
20056
20064
20072
20080
20088
20096
20104
20112
20120
20128
20136
20144
20152
20160
20168
20176
20184
20192
20200
20208
20216
20224
20232
20240
20248
20256
20264
20272
20280
20288
20296
20304
20312
20320
20328
20336
20344
20352
20360
20368
20376
20384
20392
20400
20408
20416
20424
20432
20440
20448
20456
20464
20472
20480
20488
20496
20504
20512
20520
20528
20536
20544
20552
20560
20568
20576
20584
20592
20600
20608
20616
20624
20632
20640
20648
20656
20664
20672
20680
20688
20696
20704
20712
20720
20728
20736
20744
20752
20760
20768
20776
20784
20792
20800
20808
20816
20824
20832
20840
20848
20856
20864
20872
20880
20888
20896
20904
20912
20920
20928
20936
20944
20952
20960
20968
20976
20984
20992
21000
21008
21016
21024
21032
21040
21048
21056
21064
21072
21080
21088
21096
21104
21112
21120
21128
21136
21144
21152
21160
21168
21176
21184
21192
21200
21208
21216
21224
21232
21240
21248
21256
21264
21272
21280
21288
21296
21304
21312
21320
21328
21336
21344
21352
21360
21368
21376
21384
21392
21400
21408
21416
21424
21432
21440
21448
21456
21464
21472
21480
21488
21496
21504
21512
21520
21528
21536
21544
21552
21560
21568
21576
21584
21592
21600
21608
21616
21624
21632
21640
21648
21656
21664
21672
21680
21688
21696
21704
21712
21720
21728
21736
21744
21752
21760
21768
21776
21784
21792
21800
21808
21816
21824
21832
21840
21848
21856
21864
21872
21880
21888
21896
21904
21912
21920
21928
21936
21944
21952
21960
21968
21976
21984
21992
22000
22008
22016
22024
22032
22040
22048
22056
22064
22072
22080
22088
22096
22104
22112
22120
22128
22136
22144
22152
22160
22168
22176
22184
22192
22200
22208
22216
22224
22232
22240
22248
22256
22264
22272
22280
22288
22296
22304
22312
22320
22328
22336
22344
22352
22360
22368
22376
22384
22392
22400
22408
22416
22424
22432
22440
22448
22456
22464
22472
22480
22488
22496
22504
22512
22520
22528
22536
22544
22552
22560
22568
22576
22584
22592
22600
22608
22616
22624
22632
22640
22648
22656
22664
22672
22680
22688
22696
22704
22712
22720
22728
22736
22744
22752
22760
22768
22776
22784
22792
22800
22808
22816
22824
22832
22840
22848
22856
22864
22872
22880
22888
22896
22904
22912
22920
22928
22936
22944
22952
22960
22968
22976
22984
22992
23000
23008
23016
23024
23032
23040
23048
23056
23064
23072
23080
23088
23096
23104
23112
23120
23128
23136
23144
23152
23160
23168
23176
23184
23192
23200
23208
23216
23224
23232
23240
23248
23256
23264
23272
23280
23288
23296
23304
23312
23320
23328
23336
23344
23352
23360
</DataArray>
<DataArray type="UInt8" Name="types" format="ascii" RangeMin="12" RangeMax="12">
12
12
12
12
12
12
12
12
12
12
12
12
12
12
12
12
12
12
12
12
12
12
12
12
12
12
12
12
12
12
12
12
12
12
12
12
12
12
12
12
12
12
12
12
12
12
12
12
12
12
12
12
12
12
12
12
12
12
12
12
12
12
12
12
12
12
12
12
12
12
12
12
12
12
12
12
12
12
12
12
12
12
12
12
12
12
12
12
12
12
12
12
12
12
12
12
12
12
12
12
12
12
12
12
12
12
12
12
12
12
12
12
12
12
12
12
12
12
12
12
12
12
12
12
12
12
12
12
12
12
12
12
12
12
12
12
12
12
12
12
12
12
12
12
12
12
12
12
12
12
12
12
12
12
12
12
12
12
12
12
12
12
12
12
12
12
12
12
12
12
12
12
12
12
12
12
12
12
12
12
12
12
12
12
12
12
12
12
12
12
12
12
12
12
12
12
12
12
12
12
12
12
12
12
12
12
12
12
12
12
12
12
12
12
12
12
12
12
12
12
12
12
12
12
12
12
12
12
12
12
12
12
12
12
12
12
12
12
12
12
12
12
12
12
12
12
12
12
12
12
12
12
12
12
12
12
12
12
12
12
12
12
12
12
12
12
12
12
12
12
12
12
12
12
12
12
12
12
12
12
12
12
12
12
12
12
12
12
12
12
12
12
12
12
12
12
12
12
12
12
12
12
12
12
12
12
12
12
12
12
12
12
12
12
12
12
12
12
12
12
12
12
12
12
12
12
12
12
12
12
12
12
12
12
12
12
12
12
12
12
12
12
12
12
12
12
12
12
12
12
12
12
12
12
12
12
12
12
12
12
12
12
12
12
12
12
12
12
12
12
12
12
12
12
12
12
12
12
12
12
12
12
12
12
12
12
12
12
12
12
12
12
12
12
12
12
12
12
12
12
12
12
12
12
12
12
12
12
12
12
12
12
12
12
12
12
12
12
12
12
12
12
12
12
12
12
12
12
12
12
12
12
12
12
12
12
12
12
12
12
12
12
12
12
12
12
12
12
12
12
12
12
12
12
12
12
12
12
12
12
12
12
12
12
12
12
12
12
12
12
12
12
12
12
12
12
12
12
12
12
12
12
12
12
12
12
12
12
12
12
12
12
12
12
12
12
12
12
12
12
12
12
12
12
12
12
12
12
12
12
12
12
12
12
12
12
12
12
12
12
12
12
12
12
12
12
12
12
12
12
12
12
12
12
12
12
12
12
12
12
12
12
12
12
12
12
12
12
12
12
12
12
12
12
12
12
12
12
12
12
12
12
12
12
12
12
12
12
12
12
12
12
12
12
12
12
12
12
12
12
12
12
12
12
12
12
12
12
12
12
12
12
12
12
12
12
12
12
12
12
12
12
12
12
12
12
12
12
12
12
12
12
12
12
12
12
12
12
12
12
12
12
12
12
12
12
12
12
12
12
12
12
12
12
12
12
12
12
12
12
12
12
12
12
12
12
12
12
12
12
12
12
12
12
12
12
12
12
12
12
12
12
12
12
12
12
12
12
12
12
12
12
12
12
12
12
12
12
12
12
12
12
12
12
12
12
12
12
12
12
12
12
12
12
12
12
12
12
12
12
12
12
12
12
12
12
12
12
12
12
12
12
12
12
12
12
12
12
12
12
12
12
12
12
12
12
12
12
12
12
12
12
12
12
12
12
12
12
12
12
12
12
12
12
12
12
12
12
12
12
12
12
12
12
12
12
12
12
12
12
12
12
12
12
12
12
12
12
12
12
12
12
12
12
12
12
12
12
12
12
12
12
12
12
12
12
12
12
12
12
12
12
12
12
12
12
12
12
12
12
12
12
12
12
12
12
12
12
12
12
12
12
12
12
12
12
12
12
12
12
12
12
12
12
12
12
12
12
12
12
12
12
12
12
12
12
12
12
12
12
12
12
12
12
12
12
12
12
12
12
12
12
12
12
12
12
12
12
12
12
12
12
12
12
12
12
12
12
12
12
12
12
12
12
12
12
12
12
12
12
12
12
12
12
12
12
12
12
12
12
12
12
12
12
12
12
12
12
12
12
12
12
12
12
12
12
12
12
12
12
12
12
12
12
12
12
12
12
12
12
12
12
12
12
12
12
12
12
12
12
12
12
12
12
12
12
12
12
12
12
12
12
12
12
12
12
12
12
12
12
12
12
12
12
12
12
12
12
12
12
12
12
12
12
12
12
12
12
12
12
12
12
12
12
12
12
12
12
12
12
12
12
12
12
12
12
12
12
12
12
12
12
12
12
12
12
12
12
12
12
12
12
12
12
12
12
12
12
12
12
12
12
12
12
12
12
12
12
12
12
12
12
12
12
12
12
12
12
12
12
12
12
12
12
12
12
12
12
12
12
12
12
12
12
12
12
12
12
12
12
12
12
12
12
12
12
12
12
12
12
12
12
12
12
12
12
12
12
12
12
12
12
12
12
12
12
12
12
12
12
12
12
12
12
12
12
12
12
12
12
12
12
12
12
12
12
12
12
12
12
12
12
12
12
12
12
12
12
12
12
12
12
12
12
12
12
12
12
12
12
12
12
12
12
12
12
12
12
12
12
12
12
12
12
12
12
12
12
12
12
12
12
12
12
12
12
12
12
12
12
12
12
12
12
12
12
12
12
12
12
12
12
12
12
12
12
12
12
12
12
12
12
12
12
12
12
12
12
12
12
12
12
12
12
12
12
12
12
12
12
12
12
12
12
12
12
12
12
12
12
12
12
12
12
12
12
12
12
12
12
12
12
12
12
12
12
12
12
12
12
12
12
12
12
12
12
12
12
12
12
12
12
12
12
12
12
12
12
12
12
12
12
12
12
12
12
12
12
12
12
12
12
12
12
12
12
12
12
12
12
12
12
12
12
12
12
12
12
12
12
12
12
12
12
12
12
12
12
12
12
12
12
12
12
12
12
12
12
12
12
12
12
12
12
12
12
12
12
12
12
12
12
12
12
12
12
12
12
12
12
12
12
12
12
12
12
12
12
12
12
12
12
12
12
12
12
12
12
12
12
12
12
12
12
12
12
12
12
12
12
12
12
12
12
12
12
12
12
12
12
12
12
12
12
12
12
12
12
12
12
12
12
12
12
12
12
12
12
12
12
12
12
12
12
12
12
12
12
12
12
12
12
12
12
12
12
12
12
12
12
12
12
12
12
12
12
12
12
12
12
12
12
12
12
12
12
12
12
12
12
12
12
12
12
12
12
12
12
12
12
12
12
12
12
12
12
12
12
12
12
12
12
12
12
12
12
12
12
12
12
12
12
12
12
12
12
12
12
12
12
12
12
12
12
12
12
12
12
12
12
12
12
12
12
12
12
12
12
12
12
12
12
12
12
12
12
12
12
12
12
12
12
12
12
12
12
12
12
12
12
12
12
12
12
12
12
12
12
12
12
12
12
12
12
12
12
12
12
12
12
12
12
12
12
12
12
12
12
12
12
12
12
12
12
12
12
12
12
12
12
12
12
12
12
12
12
12
12
12
12
12
12
12
12
12
12
12
12
12
12
12
12
12
12
12
12
12
12
12
12
12
12
12
12
12
12
12
12
12
12
12
12
12
12
12
12
12
12
12
12
12
12
12
12
12
12
12
12
12
12
12
12
12
12
12
12
12
12
12
12
12
12
12
12
12
12
12
12
12
12
12
12
12
12
12
12
12
12
12
12
12
12
12
12
12
12
12
12
12
12
12
12
12
12
12
12
12
12
12
12
12
12
12
12
12
12
12
12
12
12
12
12
12
12
12
12
12
12
12
12
12
12
12
12
12
12
12
12
12
12
12
12
12
12
12
12
12
12
12
12
12
12
12
12
12
12
12
12
12
12
12
12
12
12
12
12
12
12
12
12
12
12
12
12
12
12
12
12
12
12
12
12
12
12
12
12
12
12
12
12
12
12
12
12
12
12
12
12
12
12
12
12
12
12
12
12
12
12
12
12
12
12
12
12
12
12
12
12
12
12
12
12
12
12
12
12
12
12
12
12
12
12
12
12
12
12
12
12
12
12
12
12
12
12
12
12
12
12
12
12
12
12
12
12
12
12
12
12
12
12
12
12
12
12
12
12
12
12
12
12
12
12
12
12
12
12
12
12
12
12
12
12
12
12
12
12
12
12
12
12
12
12
12
12
12
12
12
12
12
12
12
12
12
12
12
12
12
12
12
12
12
12
12
12
12
12
12
12
12
12
12
12
12
12
12
12
12
12
12
12
12
12
12
12
12
12
12
12
12
12
12
12
12
12
12
12
12
12
12
12
12
12
12
12
12
12
12
12
12
12
12
12
12
12
12
12
12
12
12
12
12
12
12
12
12
12
12
12
12
12
12
12
12
12
12
12
12
12
12
12
12
12
12
12
12
12
12
12
12
12
12
12
12
12
12
12
12
12
12
12
12
12
12
12
12
12
12
12
12
12
12
12
12
12
12
12
12
12
12
12
12
12
12
12
12
12
12
12
12
12
12
12
12
12
12
12
12
12
12
12
12
12
12
12
12
12
12
12
12
12
12
12
12
12
12
12
12
12
12
12
12
12
12
12
12
12
12
12
12
12
12
12
12
12
12
12
12
12
12
12
12
12
12
12
12
12
12
12
12
12
12
12
12
12
12
12
12
12
12
12
12
12
12
12
12
12
12
12
12
12
12
12
12
12
12
12
12
12
12
12
12
12
12
12
12
12
12
12
12
12
12
12
12
12
12
12
12
12
12
12
12
12
12
12
12
12
12
12
12
12
12
12
12
12
12
12
12
12
12
12
12
12
12
12
12
12
12
12
12
12
12
12
12
12
12
12
12
12
12
12
12
12
12
12
12
12
12
12
12
12
12
12
12
12
12
12
12
12
12
12
12
12
12
12
12
12
12
12
12
12
12
12
12
12
12
12
12
12
12
12
12
12
12
12
12
12
12
12
12
12
12
12
12
12
12
12
12
12
12
12
12
12
12
12
12
12
12
12
12
12
12
12
12
12
12
12
12
12
12
12
12
12
12
12
12
12
12
12
12
12
12
12
12
12
12
12
12
12
12
12
12
12
12
12
12
12
12
12
12
12
12
12
12
12
12
12
12
12
12
12
12
12
12
12
12
12
12
12
12
12
12
12
12
12
12
12
12
12
12
12
12
12
12
12
12
12
12
12
12
12
12
12
12
12
12
12
12
12
12
12
12
12
12
12
12
12
12
12
12
12
12
12
12
12
12
12
12
12
12
12
12
12
12
12
12
12
12
12
12
12
12
12
12
12
12
12
12
12
12
12
12
12
12
12
12
12
12
12
12
12
12
12
12
12
12
12
12
12
12
12
12
12
12
12
12
12
12
12
12
12
12
12
12
12
12
12
12
12
12
12
12
12
12
12
12
12
12
12
12
12
12
12
12
12
12
12
12
12
12
12
12
12
12
12
12
12
12
12
12
12
12
12
12
12
12
12
12
12
12
12
12
12
12
12
12
12
12
12
12
12
12
12
12
12
12
12
12
12
12
12
12
12
12
12
12
12
12
12
12
12
12
12
12
12
12
12
12
12
12
12
12
12
12
12
12
12
12
12
12
12
12
12
12
12
12
12
12
12
12
12
12
12
12
12
12
12
12
12
12
12
12
12
12
12
12
12
12
12
12
12
12
12
12
12
12
12
12
12
12
12
12
12
12
12
12
12
12
12
12
12
12
12
12
12
12
12
12
12
12
12
12
12
12
12
12
12
12
12
12
12
12
12
12
12
12
12
12
12
12
12
12
12
12
12
12
12
12
12
12
12
12
12
12
12
12
12
12
12
12
12
12
12
12
12
12
12
12
12
12
12
12
12
12
12
12
12
12
12
12
12
12
12
12
12
12
12
12
12
12
12
12
12
12
12
12
12
12
12
12
12
12
12
12
12
12
12
12
12
12
12
12
12
12
12
12
12
12
12
12
12
12
12
12
12
12
12
12
12
12
12
12
12
12
12
12
12
12
12
12
12
12
12
12
12
12
12
12
12
12
12
12
12
12
12
12
12
12
12
12
12
12
12
12
12
12
12
12
12
12
12
12
12
12
12
12
12
12
12
12
12
12
12
12
12
12
12
12
12
12
12
12
12
12
12
12
12
12
12
12
12
12
12
12
12
12
12
12
12
12
12
12
12
12
12
12
12
12
12
12
12
12
12
12
12
12
12
12
12
12
12
12
12
12
12
12
12
12
12
12
12
12
12
12
12
12
12
12
12
12
12
12
12
12
12
12
12
12
12
12
12
12
12
12
12
12
12
12
12
12
12
12
12
12
12
12
12
12
12
12
12
12
12
12
12
12
12
12
12
12
12
12
12
12
12
12
12
12
12
12
12
12
12
12
12
12
12
12
12
12
12
12
12
12
12
12
12
12
12
12
12
12
12
12
12
12
12
12
12
12
12
12
12
12
12
12
12
12
12
12
12
12
12
12
12
12
12
12
12
12
12
12
12
12
12
12
12
12
12
12
12
12
12
12
12
12
12
12
12
12
12
12
12
12
12
12
12
12
12
12
12
12
12
12
12
12
12
12
12
12
12
12
12
12
12
12
12
12
12
12
12
12
12
12
12
12
12
12
12
12
12
12
12
12
12
12
12
12
12
12
12
12
12
12
12
12
12
12
12
12
12
</DataArray>
</Cells>
</Piece>
</UnstructuredGrid>
</VTKFile>
