<?xml version="1.0"?>
<VTKFile type="UnstructuredGrid" version="0.1" byte_order="LittleEndian" compressor="vtkZLibDataCompressor">
<UnstructuredGrid>
<Piece NumberOfPoints="465" NumberOfCells="448">
<PointData>
<DataArray type="Float64" Name="displacement" NumberOfComponents="3" format="ascii" >
-1.25260606394e-19 -9.49370217915e-05  0.
-2.11903534042e-07 -9.49318285286e-05  0.
-5.56302381286e-08 -9.49358082023e-05  0.
-1.10170920068e-07 -9.4932937432e-05  0.
-1.62499054103e-07 -9.49305141605e-05  0.
-5.45804787435e-20 -9.51636506556e-05  0.
-7.92434890923e-20 -9.49885339235e-05  0.
-1.29238331359e-20 -9.50434594022e-05  0.
-1.87690796506e-19 -9.51018383144e-05  0.
-1.61655695676e-07 -9.50886926119e-05  0.
-1.22501000467e-07 -9.51215303887e-05  0.
-8.22184258489e-08 -9.51448767327e-05  0.
-4.12743050896e-08 -9.51589505098e-05  0.
-1.75632784054e-07 -9.50493737338e-05  0.
-1.88614421011e-07 -9.50101463969e-05  0.
-2.00610288634e-07 -9.49710413531e-05  0.
-1.54529155149e-07 -9.49759786556e-05  0.
-1.45142721127e-07 -9.50230195691e-05  0.
-1.34495473464e-07 -9.5071544912e-05  0.
-1.04889388856e-07 -9.49821071708e-05  0.
-9.85142203626e-08 -9.50338681418e-05  0.
-9.09379775192e-08 -9.50881759375e-05  0.
-5.30127919111e-08 -9.49867987148e-05  0.
-4.97712476266e-08 -9.50409851941e-05  0.
-4.58564976338e-08 -9.5098384083e-05  0.
2.11903534041e-07 -9.49318285286e-05  0.
5.56302381286e-08 -9.49358082023e-05  0.
1.10170920067e-07 -9.4932937432e-05  0.
1.62499054103e-07 -9.49305141605e-05  0.
1.61655695676e-07 -9.50886926119e-05  0.
2.00610288634e-07 -9.49710413531e-05  0.
1.88614421011e-07 -9.50101463969e-05  0.
1.75632784054e-07 -9.50493737338e-05  0.
1.22501000467e-07 -9.51215303887e-05  0.
8.22184258487e-08 -9.51448767327e-05  0.
4.12743050895e-08 -9.51589505098e-05  0.
5.30127919108e-08 -9.49867987148e-05  0.
4.97712476265e-08 -9.50409851941e-05  0.
4.58564976337e-08 -9.5098384083e-05  0.
1.04889388856e-07 -9.49821071708e-05  0.
9.85142203624e-08 -9.50338681418e-05  0.
9.0937977519e-08 -9.50881759375e-05  0.
1.54529155149e-07 -9.49759786556e-05  0.
1.45142721126e-07 -9.50230195691e-05  0.
1.34495473464e-07 -9.5071544912e-05  0.
1.11214737582e-07 -9.56513162107e-05  0.
-2.08038819189e-19 -9.57631834727e-05  0.
8.27432217212e-08 -9.57006356976e-05  0.
5.4895486524e-08 -9.57354001408e-05  0.
2.73652146985e-08 -9.57562397277e-05  0.
9.2554091995e-08 -9.56677826949e-05  0.
1.11852517899e-07 -9.56600652672e-05  0.
1.08924830414e-07 -9.56654915016e-05  0.
1.02430868626e-07 -9.56678787842e-05  0.
-6.42944225683e-20 -9.60654816302e-05  0.
-2.45657121325e-08 -9.60378495632e-05  0.
-2.36531869864e-08 -9.59570788367e-05  0.
1.66439098777e-08 -9.58295980875e-05  0.
-4.16361361329e-20 -9.59965118603e-05  0.
-1.2412755125e-20 -9.59218843116e-05  0.
-1.26571713514e-19 -9.58435741278e-05  0.
2.28388560644e-08 -9.58313251761e-05  0.
1.3704937573e-08 -9.59042967198e-05  0.
-1.50534150938e-09 -9.59737189835e-05  0.
4.80101208478e-08 -9.5795215749e-05  0.
3.40922671834e-08 -9.5852736232e-05  0.
1.10060137191e-08 -9.5907115051e-05  0.
7.73104469914e-08 -9.57369068511e-05  0.
6.56691887566e-08 -9.57709885214e-05  0.
4.60378313693e-08 -9.5802045489e-05  0.
-9.25540919951e-08 -9.56677826949e-05  0.
2.45657121324e-08 -9.60378495632e-05  0.
2.36531869864e-08 -9.59570788367e-05  0.
-1.66439098778e-08 -9.58295980875e-05  0.
-1.11214737582e-07 -9.56513162107e-05  0.
-1.11852517899e-07 -9.56600652672e-05  0.
-1.08924830414e-07 -9.56654915016e-05  0.
-1.02430868626e-07 -9.56678787842e-05  0.
-8.27432217214e-08 -9.57006356976e-05  0.
-5.48954865241e-08 -9.57354001408e-05  0.
-2.73652146989e-08 -9.57562397277e-05  0.
1.50534150939e-09 -9.59737189835e-05  0.
-1.37049375731e-08 -9.59042967198e-05  0.
-2.28388560646e-08 -9.58313251761e-05  0.
-1.10060137191e-08 -9.5907115051e-05  0.
-3.40922671834e-08 -9.5852736232e-05  0.
-4.80101208481e-08 -9.5795215749e-05  0.
-4.60378313695e-08 -9.5802045489e-05  0.
-6.56691887569e-08 -9.57709885214e-05  0.
-7.73104469915e-08 -9.57369068511e-05  0.
-1.64543351224e-07 -9.5350881814e-05  0.
-1.33157183441e-07 -9.5574362789e-05  0.
-1.48424515496e-07 -9.54981291022e-05  0.
-1.5853938018e-07 -9.54234350279e-05  0.
-3.14818116368e-07 -9.50795294151e-05  0.
-2.95964417576e-07 -9.51837447331e-05  0.
-2.4936319104e-07 -9.5323028506e-05  0.
-1.77077439071e-07 -9.54898838635e-05  0.
-2.7972323602e-07 -9.51623341993e-05  0.
-2.42685546555e-07 -9.52355821962e-05  0.
-2.04176002884e-07 -9.52986130514e-05  0.
-1.94553426931e-07 -9.53806332078e-05  0.
-2.29537587076e-07 -9.53263435759e-05  0.
-2.63387636716e-07 -9.52606863575e-05  0.
-1.7584870566e-07 -9.54694988743e-05  0.
-2.01758170658e-07 -9.54308980088e-05  0.
-2.26253531408e-07 -9.53821239696e-05  0.
-1.47801209375e-07 -9.55634109421e-05  0.
-1.60228165805e-07 -9.55458761285e-05  0.
-1.69977423768e-07 -9.55213721051e-05  0.
-3.10616154286e-07 -9.50088795784e-05  0.
-2.89006665486e-07 -9.49655841192e-05  0.
-2.54896192653e-07 -9.49422795255e-05  0.
-1.65302543357e-07 -9.51497294764e-05  0.
-1.67304199451e-07 -9.52137843822e-05  0.
-1.67246330174e-07 -9.5280896046e-05  0.
-2.77838978152e-07 -9.50875073058e-05  0.
-2.42679282528e-07 -9.5159693388e-05  0.
-2.05658911463e-07 -9.52244455705e-05  0.
-2.61639314646e-07 -9.50334149858e-05  0.
-2.31949139193e-07 -9.50979798152e-05  0.
-2.00380838806e-07 -9.51584010766e-05  0.
-2.3486575165e-07 -9.49958353023e-05  0.
-2.13102218918e-07 -9.50487677375e-05  0.
-1.89848465317e-07 -9.51002246284e-05  0.
3.14818116368e-07 -9.50795294151e-05  0.
2.95964417576e-07 -9.51837447331e-05  0.
2.4936319104e-07 -9.5323028506e-05  0.
1.77077439071e-07 -9.54898838635e-05  0.
1.64543351223e-07 -9.5350881814e-05  0.
1.33157183441e-07 -9.5574362789e-05  0.
1.48424515496e-07 -9.54981291022e-05  0.
1.5853938018e-07 -9.54234350279e-05  0.
2.7972323602e-07 -9.51623341993e-05  0.
2.42685546554e-07 -9.52355821962e-05  0.
2.04176002884e-07 -9.52986130514e-05  0.
2.63387636716e-07 -9.52606863575e-05  0.
2.29537587076e-07 -9.53263435759e-05  0.
1.94553426931e-07 -9.53806332078e-05  0.
2.26253531408e-07 -9.53821239696e-05  0.
2.01758170658e-07 -9.54308980088e-05  0.
1.7584870566e-07 -9.54694988743e-05  0.
1.69977423768e-07 -9.55213721051e-05  0.
1.60228165805e-07 -9.55458761285e-05  0.
1.47801209375e-07 -9.55634109421e-05  0.
3.10616154286e-07 -9.50088795784e-05  0.
2.89006665485e-07 -9.49655841192e-05  0.
2.54896192653e-07 -9.49422795255e-05  0.
1.65302543357e-07 -9.51497294764e-05  0.
1.67304199451e-07 -9.52137843822e-05  0.
1.67246330174e-07 -9.5280896046e-05  0.
2.3486575165e-07 -9.49958353023e-05  0.
2.13102218917e-07 -9.50487677375e-05  0.
1.89848465317e-07 -9.51002246284e-05  0.
2.61639314645e-07 -9.50334149858e-05  0.
2.31949139193e-07 -9.50979798152e-05  0.
2.00380838806e-07 -9.51584010766e-05  0.
2.77838978152e-07 -9.50875073058e-05  0.
2.42679282527e-07 -9.5159693388e-05  0.
2.05658911463e-07 -9.52244455705e-05  0.
9.95313158091e-08 -9.56215623874e-05  0.
1.11418266912e-07 -9.55432096525e-05  0.
1.19342107628e-07 -9.54664025068e-05  0.
1.24091037283e-07 -9.53917133075e-05  0.
1.26293646463e-07 -9.53195849662e-05  0.
1.26467761478e-07 -9.52503486779e-05  0.
1.25026642838e-07 -9.51842442395e-05  0.
6.61231756874e-08 -9.56553056274e-05  0.
7.42778807567e-08 -9.55756555033e-05  0.
7.97478100209e-08 -9.54973924925e-05  0.
8.30446737625e-08 -9.54211840527e-05  0.
8.46046990461e-08 -9.53475184926e-05  0.
8.47856501512e-08 -9.52767573188e-05  0.
8.3911581523e-08 -9.5209170885e-05  0.
3.29972826092e-08 -9.56755140262e-05  0.
3.71260605574e-08 -9.55951673337e-05  0.
3.9922686276e-08 -9.55160836203e-05  0.
4.16149327229e-08 -9.54389816664e-05  0.
4.24247071852e-08 -9.53643940855e-05  0.
4.25420239785e-08 -9.52927053051e-05  0.
4.21220534773e-08 -9.52241698663e-05  0.
-1.3661880433e-19 -9.56822521298e-05  0.
-1.53064188884e-19 -9.56016741049e-05  0.
-1.66215533443e-19 -9.55223272396e-05  0.
-8.03650426053e-20 -9.54449321288e-05  0.
-9.32896362789e-20 -9.53700379377e-05  0.
-5.49297299078e-20 -9.52980340663e-05  0.
-1.12526046561e-19 -9.52291831086e-05  0.
-3.29972826094e-08 -9.56755140262e-05  0.
-3.71260605576e-08 -9.55951673337e-05  0.
-3.99226862762e-08 -9.55160836203e-05  0.
-4.16149327231e-08 -9.54389816664e-05  0.
-4.24247071855e-08 -9.53643940855e-05  0.
-4.25420239787e-08 -9.52927053051e-05  0.
-4.21220534776e-08 -9.52241698663e-05  0.
-6.61231756875e-08 -9.56553056275e-05  0.
-7.4277880757e-08 -9.55756555033e-05  0.
-7.97478100211e-08 -9.54973924925e-05  0.
-8.30446737628e-08 -9.54211840527e-05  0.
-8.46046990463e-08 -9.53475184926e-05  0.
-8.47856501512e-08 -9.52767573188e-05  0.
-8.39115815233e-08 -9.5209170885e-05  0.
-9.95313158092e-08 -9.56215623874e-05  0.
-1.11418266912e-07 -9.55432096525e-05  0.
-1.19342107628e-07 -9.54664025068e-05  0.
-1.24091037283e-07 -9.53917133075e-05  0.
-1.26293646464e-07 -9.53195849662e-05  0.
-1.26467761478e-07 -9.52503486779e-05  0.
-1.25026642839e-07 -9.51842442395e-05  0.
-1.58311522618e-06 -9.52751668419e-05  0.
1.43480396759e-19 -9.61431623091e-05  0.
-1.30491156915e-06 -9.56038851423e-05  0.
-9.25085562757e-07 -9.58781239746e-05  0.
-4.83375139425e-07 -9.60711532587e-05  0.
-3.35221208686e-21 -9.61443565864e-05  0.
1.2852298088e-19 -9.62042382223e-05  0.
1.46286696085e-19 -9.62402769952e-05  0.
-7.7449107103e-07 -9.53682040512e-05  0.
-2.88658831127e-07 -9.55162428334e-05  0.
-2.44345839591e-08 -9.56228750536e-05  0.
-7.66458750593e-07 -9.57358982508e-05  0.
-3.57405016776e-07 -9.5811381566e-05  0.
-1.10181639118e-07 -9.58416807342e-05  0.
-5.86190594843e-07 -9.60012771664e-05  0.
-3.09462598944e-07 -9.6023410527e-05  0.
-1.28160134951e-07 -9.60059976417e-05  0.
-3.13750653104e-07 -9.61775060726e-05  0.
-1.76581962941e-07 -9.61575454912e-05  0.
-8.26501058229e-08 -9.61089453477e-05  0.
1.58311522618e-06 -9.52751668419e-05  0.
1.30491156915e-06 -9.56038851423e-05  0.
9.25085562757e-07 -9.58781239746e-05  0.
4.83375139425e-07 -9.60711532587e-05  0.
7.7449107103e-07 -9.53682040512e-05  0.
2.88658831127e-07 -9.55162428334e-05  0.
2.4434583959e-08 -9.56228750536e-05  0.
3.13750653104e-07 -9.61775060726e-05  0.
1.76581962942e-07 -9.61575454912e-05  0.
8.2650105823e-08 -9.61089453477e-05  0.
5.86190594843e-07 -9.60012771664e-05  0.
3.09462598944e-07 -9.6023410527e-05  0.
1.28160134951e-07 -9.60059976417e-05  0.
7.66458750593e-07 -9.57358982508e-05  0.
3.57405016777e-07 -9.5811381566e-05  0.
1.10181639118e-07 -9.58416807342e-05  0.
-2.5267001567e-07 -9.43627204274e-05  0.
-2.66948911607e-07 -9.44719612193e-05  0.
-2.67646551245e-07 -9.46041917078e-05  0.
-2.50311712136e-07 -9.47586026001e-05  0.
-5.01084134938e-20 -9.47165380647e-05  0.
-2.18949285793e-07 -9.44978531462e-05  0.
-1.62892963292e-07 -9.46124329311e-05  0.
-8.70237025429e-08 -9.46893521253e-05  0.
3.68151982759e-20 -9.48741410586e-05  0.
-1.69647777223e-19 -9.48166806099e-05  0.
-1.62097789579e-19 -9.47642688451e-05  0.
-6.64648531677e-08 -9.48661129253e-05  0.
-7.52054407474e-08 -9.48019051167e-05  0.
-8.197644416e-08 -9.47430509564e-05  0.
-1.31234030071e-07 -9.48428298092e-05  0.
-1.46782563957e-07 -9.47589924582e-05  0.
-1.57110981783e-07 -9.46820676695e-05  0.
-1.92971224495e-07 -9.48062305143e-05  0.
-2.1170833899e-07 -9.46914771306e-05  0.
-2.20016531356e-07 -9.45884377733e-05  0.
2.5267001567e-07 -9.43627204274e-05  0.
2.18949285793e-07 -9.44978531462e-05  0.
1.62892963292e-07 -9.46124329311e-05  0.
8.70237025426e-08 -9.46893521253e-05  0.
2.66948911607e-07 -9.44719612193e-05  0.
2.67646551245e-07 -9.46041917078e-05  0.
2.50311712136e-07 -9.47586026001e-05  0.
1.92971224495e-07 -9.48062305143e-05  0.
2.1170833899e-07 -9.46914771306e-05  0.
2.20016531356e-07 -9.45884377733e-05  0.
1.31234030071e-07 -9.48428298092e-05  0.
1.46782563957e-07 -9.47589924582e-05  0.
1.57110981783e-07 -9.46820676695e-05  0.
6.64648531673e-08 -9.48661129253e-05  0.
7.52054407474e-08 -9.48019051167e-05  0.
8.19764441598e-08 -9.47430509564e-05  0.
4.41470239554e-07 -9.45310742163e-05  0.
-1.37431166323e-07 -9.47224363366e-05  0.
2.60311940746e-07 -9.46886438044e-05  0.
4.25080877913e-07 -9.45668710371e-05  0.
3.5747375242e-07 -9.49557480376e-05  0.
3.94164031844e-07 -9.48197978783e-05  0.
4.23556406222e-07 -9.46743984125e-05  0.
3.9946047316e-07 -9.4764868645e-05  0.
3.70564284917e-07 -9.49274021763e-05  0.
3.35627267388e-07 -9.50679136287e-05  0.
2.80656257071e-07 -9.48905706523e-05  0.
2.80686066978e-07 -9.50783213965e-05  0.
2.70238646114e-07 -9.52201644751e-05  0.
-9.57876594869e-09 -9.50896782155e-05  0.
8.76125867903e-08 -9.52786900037e-05  0.
1.50728725215e-07 -9.54106057495e-05  0.
-4.41470239555e-07 -9.45310742163e-05  0.
1.37431166324e-07 -9.47224363366e-05  0.
-2.60311940746e-07 -9.46886438044e-05  0.
-4.25080877913e-07 -9.45668710371e-05  0.
-3.5747375242e-07 -9.49557480376e-05  0.
-3.94164031845e-07 -9.48197978783e-05  0.
-4.23556406223e-07 -9.46743984125e-05  0.
9.57876594879e-09 -9.50896782155e-05  0.
-8.76125867903e-08 -9.52786900037e-05  0.
-1.50728725215e-07 -9.54106057495e-05  0.
-2.80656257071e-07 -9.48905706523e-05  0.
-2.80686066978e-07 -9.50783213965e-05  0.
-2.70238646114e-07 -9.52201644751e-05  0.
-3.9946047316e-07 -9.4764868645e-05  0.
-3.70564284917e-07 -9.49274021763e-05  0.
-3.35627267388e-07 -9.50679136287e-05  0.
-3.09068636197e-07 -9.4393148863e-05  0.
-3.70357952116e-07 -9.44310797387e-05  0.
-4.22252507089e-07 -9.44790409706e-05  0.
-4.05875755634e-07 -9.46088006335e-05  0.
-3.82726330839e-07 -9.4741938081e-05  0.
-3.50741009917e-07 -9.48769903554e-05  0.
-3.66316016052e-07 -9.45526744991e-05  0.
-3.51512149028e-07 -9.46838616162e-05  0.
-3.25882076491e-07 -9.48226466247e-05  0.
-3.16499415733e-07 -9.45076750598e-05  0.
-3.10868822189e-07 -9.46391223395e-05  0.
-2.90532517906e-07 -9.4785144071e-05  0.
3.09068636197e-07 -9.4393148863e-05  0.
3.70357952116e-07 -9.44310797387e-05  0.
4.22252507089e-07 -9.44790409706e-05  0.
3.16499415732e-07 -9.45076750598e-05  0.
3.10868822188e-07 -9.46391223395e-05  0.
2.90532517906e-07 -9.4785144071e-05  0.
3.66316016051e-07 -9.45526744991e-05  0.
3.51512149027e-07 -9.46838616162e-05  0.
3.25882076491e-07 -9.48226466247e-05  0.
4.05875755633e-07 -9.46088006335e-05  0.
3.82726330839e-07 -9.4741938081e-05  0.
3.50741009916e-07 -9.48769903554e-05  0.
0.0 0.0  0.
0.0 -9.33545221986e-05  0.
0.0 -5.64991822637e-05  0.
0.0 -8.72298752117e-05  0.
0.0 -9.29944694056e-05  0.
-1.0621141517e-06 -4.08282125806e-05  0.
-1.77298635033e-06 -6.99340616349e-05  0.
-2.01240900386e-06 -8.80488854753e-05  0.
1.10131012736e-07 -9.32621366519e-05  0.
3.96513874187e-07 -9.33677603407e-05  0.
4.6789245324e-07 -9.38730571559e-05  0.
9.54547515471e-07 -9.25298242856e-05  0.
6.38331720944e-07 -9.32342952019e-05  0.
4.11308237801e-07 -9.38017944819e-05  0.
-9.53866105671e-07 -9.18091072e-05  0.
-3.53963806555e-07 -9.33555001911e-05  0.
4.20499017666e-07 -9.35306857898e-05  0.
-5.52910851334e-07 -7.44074813317e-05  0.
-1.26589683852e-06 -8.69897683303e-05  0.
-1.41000047036e-06 -9.36934465589e-05  0.
0.0 0.0  0.
0.0 -9.33545221986e-05  0.
0.0 -5.64991822637e-05  0.
0.0 -8.72298752117e-05  0.
0.0 -9.29944694056e-05  0.
-1.10131012736e-07 -9.32621366519e-05  0.
-3.96513874187e-07 -9.33677603407e-05  0.
-4.6789245324e-07 -9.38730571559e-05  0.
1.0621141517e-06 -4.08282125806e-05  0.
1.77298635033e-06 -6.99340616349e-05  0.
2.01240900386e-06 -8.80488854753e-05  0.
5.52910851334e-07 -7.44074813317e-05  0.
1.26589683852e-06 -8.69897683303e-05  0.
1.41000047036e-06 -9.36934465589e-05  0.
9.53866105671e-07 -9.18091072e-05  0.
3.53963806556e-07 -9.33555001911e-05  0.
-4.20499017665e-07 -9.35306857898e-05  0.
-9.54547515471e-07 -9.25298242856e-05  0.
-6.38331720944e-07 -9.32342952019e-05  0.
-4.11308237801e-07 -9.38017944819e-05  0.
0.0 -9.38507120122e-05  0.
0.0 -9.38229378328e-05  0.
0.0 -9.37274763616e-05  0.
0.0 -9.35448078255e-05  0.
-5.77207023107e-08 -9.38797406952e-05  0.
-1.11973588595e-07 -9.39470073562e-05  0.
-1.87429302959e-07 -9.40852768198e-05  0.
-1.1901012377e-07 -9.35509983031e-05  0.
-2.53763248038e-07 -9.36385016814e-05  0.
-3.97667724073e-07 -9.39480861376e-05  0.
-8.75999494615e-08 -9.37178931427e-05  0.
-1.96883353355e-07 -9.37986213897e-05  0.
-3.09177888139e-07 -9.40169680355e-05  0.
-6.30029636765e-08 -9.38219393264e-05  0.
-1.45648882311e-07 -9.3891178262e-05  0.
-2.39343992937e-07 -9.40603755226e-05  0.
0.0 -9.38507120122e-05  0.
5.77207023107e-08 -9.38797406952e-05  0.
1.11973588595e-07 -9.39470073562e-05  0.
1.87429302958e-07 -9.40852768198e-05  0.
0.0 -9.38229378328e-05  0.
0.0 -9.37274763616e-05  0.
0.0 -9.35448078255e-05  0.
3.97667724073e-07 -9.39480861376e-05  0.
2.53763248038e-07 -9.36385016814e-05  0.
1.1901012377e-07 -9.35509983031e-05  0.
3.09177888138e-07 -9.40169680355e-05  0.
1.96883353355e-07 -9.37986213897e-05  0.
8.75999494614e-08 -9.37178931427e-05  0.
2.39343992936e-07 -9.40603755226e-05  0.
1.45648882311e-07 -9.3891178262e-05  0.
6.30029636765e-08 -9.38219393264e-05  0.
0.0 0.0  0.
0.0 0.0  0.
0.0 0.0  0.
0.0 0.0  0.
1.97324549048e-19 -3.99330239891e-05  0.
9.06814194852e-20 -6.92366364107e-05  0.
2.43354726756e-19 -8.80346230966e-05  0.
-7.037568842e-07 -4.03708900936e-05  0.
-1.44066486665e-06 -6.96912948341e-05  0.
-1.79200058789e-06 -8.80209306099e-05  0.
-5.43810369544e-07 -4.02632437511e-05  0.
-1.11920546218e-06 -6.95629749753e-05  0.
-1.40579431521e-06 -8.80460662743e-05  0.
-2.7156777469e-07 -4.0052775928e-05  0.
-6.23982926126e-07 -6.93484586465e-05  0.
-7.75805969541e-07 -8.80374923946e-05  0.
0.0 0.0  0.
0.0 0.0  0.
0.0 0.0  0.
2.7156777469e-07 -4.0052775928e-05  0.
6.23982926126e-07 -6.93484586465e-05  0.
7.75805969541e-07 -8.80374923946e-05  0.
5.43810369544e-07 -4.02632437511e-05  0.
1.11920546218e-06 -6.95629749753e-05  0.
1.40579431521e-06 -8.80460662743e-05  0.
7.037568842e-07 -4.03708900936e-05  0.
1.44066486665e-06 -6.96912948341e-05  0.
1.7920005879e-06 -8.80209306099e-05  0.
-1.10587604937e-19 -9.43561907494e-05  0.
-1.3201191534e-07 -9.39536981661e-05  0.
-1.90219167983e-07 -9.41142234895e-05  0.
-1.4088240391e-07 -9.42826467927e-05  0.
-2.12055298051e-19 -9.43969001722e-05  0.
-1.4124548399e-19 -9.44501800558e-05  0.
-9.36158039342e-20 -9.4547079784e-05  0.
-8.16136810861e-08 -9.45087751021e-05  0.
-7.27209866322e-08 -9.44007485117e-05  0.
-7.95296269157e-08 -9.43340547592e-05  0.
-1.45523834953e-07 -9.44035891305e-05  0.
-1.22351847977e-07 -9.42703938195e-05  0.
-1.23335033087e-07 -9.4179542064e-05  0.
-1.81947407233e-07 -9.42548717516e-05  0.
-1.35625018089e-07 -9.41017191801e-05  0.
-1.12875760319e-07 -9.40074432374e-05  0.
1.3201191534e-07 -9.39536981661e-05  0.
1.90219167982e-07 -9.41142234895e-05  0.
1.4088240391e-07 -9.42826467927e-05  0.
7.95296269154e-08 -9.43340547592e-05  0.
7.27209866319e-08 -9.44007485117e-05  0.
8.16136810859e-08 -9.45087751021e-05  0.
1.23335033087e-07 -9.4179542064e-05  0.
1.22351847976e-07 -9.42703938195e-05  0.
1.45523834952e-07 -9.44035891305e-05  0.
1.12875760319e-07 -9.40074432374e-05  0.
1.35625018089e-07 -9.41017191801e-05  0.
1.81947407233e-07 -9.42548717516e-05  0.
</DataArray>
<DataArray type="Float64" Name="stresses" NumberOfComponents="4" format="ascii" >
-41574.0631195 -95758.2140301 -41199.6831449 1.06610276163e-11  
-44455.1905248 -102786.535653 -44172.5178535 555.494724776  
-41775.1145596 -96212.6520955 -41396.3299965 92.7153355159  
-42355.5721353 -97553.1299061 -41972.6106124 216.080466833  
-43251.6754441 -99751.8469149 -42901.0567077 374.47711756  
-46740.9567652 -107877.086035 -46385.41284 -5.09761122203e-11  
-42961.7949892 -99031.4412487 -42597.9708714 -1.05120356864e-10  
-44212.5484798 -101973.655635 -43855.8612345 -9.64206492426e-12  
-45463.1076065 -104905.976014 -45110.7250862 9.78594982826e-12  
-46928.7473297 -108725.872744 -46696.3860221 406.915298324  
-46766.3571749 -108177.073374 -46483.0291645 225.571349921  
-46754.9323763 -108016.358943 -46431.3873959 154.170332118  
-46743.7316261 -107911.926886 -46396.6975537 78.5752214093  
-46364.1258757 -107378.263429 -46122.7167915 409.944276804  
-45799.9122597 -106019.964155 -45545.9629243 405.160337238  
-45242.3209845 -104698.690653 -44982.3034912 390.861194698  
-44248.6120589 -102214.149083 -43938.8283425 261.516800573  
-45039.5542854 -104120.163382 -44747.9153003 243.74731  
-45840.3315288 -106024.705743 -45559.5111816 243.061460907  
-43540.4942541 -100465.943422 -43201.931303 187.209258206  
-44580.5447138 -102939.131298 -44255.9028034 175.144895508  
-45633.7340301 -105417.196621 -45315.2791952 176.0008361  
-43110.0557032 -99395.0762149 -42751.5395754 96.706570212  
-44306.3140342 -102217.85829 -43957.2516972 91.7885687759  
-45506.6652023 -105035.408627 -45162.6221489 90.8105229125  
-44455.1905248 -102786.535653 -44172.5178535 -555.494724776  
-41775.1145596 -96212.6520955 -41396.3299965 -92.7153355158  
-42355.5721353 -97553.1299061 -41972.6106124 -216.080466833  
-43251.6754441 -99751.8469149 -42901.0567077 -374.47711756  
-46928.7473297 -108725.872744 -46696.3860221 -406.915298324  
-45242.3209845 -104698.690653 -44982.3034912 -390.861194697  
-45799.9122597 -106019.964155 -45545.9629243 -405.160337239  
-46364.1258757 -107378.263429 -46122.7167915 -409.944276804  
-46766.3571749 -108177.073374 -46483.0291645 -225.571349922  
-46754.9323763 -108016.358943 -46431.3873959 -154.170332118  
-46743.7316261 -107911.926886 -46396.6975537 -78.5752214092  
-43110.0557032 -99395.0762149 -42751.5395754 -96.706570212  
-44306.3140342 -102217.85829 -43957.2516972 -91.7885687763  
-45506.6652023 -105035.408627 -45162.6221489 -90.8105229124  
-43540.4942541 -100465.943422 -43201.931303 -187.209258206  
-44580.5447138 -102939.131298 -44255.9028034 -175.144895508  
-45633.7340301 -105417.196621 -45315.2791952 -176.0008361  
-44248.6120589 -102214.149083 -43938.8283425 -261.516800573  
-45039.5542854 -104120.163382 -44747.9153003 -243.747309999  
-45840.3315288 -106024.705743 -45559.5111816 -243.061460907  
-56123.7436803 -130502.644702 -55987.9165146 -401.130159633  
-56309.1119134 -131308.342065 -56285.2361936 5.40367750546e-12  
-56287.7533913 -131033.189419 -56196.282843 -219.136685255  
-56296.8742174 -131179.998416 -56243.06179 -148.69705522  
-56306.7810242 -131276.240366 -56274.906417 -75.5254130314  
-58542.8728077 -136489.838243 -58509.8133151 -535.505993624  
-56682.2062744 -131857.894039 -56562.030094 -402.607631029  
-57236.9296148 -133226.722441 -57139.0956169 -395.41187219  
-57787.5928655 -134556.756046 -57703.3046735 -377.91525899  
-61302.8093894 -143461.184033 -61429.1980267 5.1593396222e-11  
-61110.1143222 -143010.647951 -61236.2286819 -69.1914373497  
-60555.0603035 -141680.16836 -60670.5685991 -179.164127238  
-59701.4763947 -139499.677415 -59760.3461429 -337.889818184  
-59972.1650822 -140171.487525 -60043.0957821 9.06359431951e-11  
-58768.5333781 -137221.066461 -58796.8799516 -1.0845546683e-10  
-57556.209338 -134283.115228 -57551.7973699 6.65068000671e-12  
-57514.4851487 -134156.17091 -57501.1968176 -86.0778695558  
-58678.7435479 -136979.449567 -58697.4579344 -83.5549361759  
-59830.3762824 -139810.239554 -59892.1847509 -83.4754752222  
-57392.9671407 -133782.058997 -57352.5078412 -167.792902771  
-58416.2197123 -136266.243208 -58404.738876 -161.074208468  
-59419.2172077 -138747.100621 -59449.8953487 -165.14205927  
-57196.0528015 -133188.254249 -57115.2921151 -233.373409281  
-57975.7714073 -135099.549933 -57922.5964022 -228.313906033  
-58741.1969802 -137013.733698 -58726.4792035 -238.357999452  
-58542.8728077 -136489.838243 -58509.8133151 535.505993624  
-61110.1143222 -143010.647951 -61236.2286819 69.1914373497  
-60555.0603035 -141680.16836 -60670.5685991 179.164127238  
-59701.4763947 -139499.677415 -59760.3461429 337.889818184  
-56123.7436803 -130502.644702 -55987.9165146 401.130159633  
-56682.2062744 -131857.894039 -56562.030094 402.60763103  
-57236.9296148 -133226.722441 -57139.0956169 395.41187219  
-57787.5928655 -134556.756046 -57703.3046735 377.91525899  
-56287.7533913 -131033.189419 -56196.282843 219.136685256  
-56296.8742174 -131179.998416 -56243.06179 148.69705522  
-56306.7810242 -131276.240366 -56274.906417 75.5254130317  
-59830.3762824 -139810.239554 -59892.1847509 83.4754752221  
-58678.7435479 -136979.449567 -58697.4579344 83.5549361761  
-57514.4851487 -134156.17091 -57501.1968176 86.0778695559  
-59419.2172077 -138747.100621 -59449.8953487 165.14205927  
-58416.2197123 -136266.243208 -58404.738876 161.074208468  
-57392.9671407 -133782.058997 -57352.5078412 167.792902771  
-58741.1969802 -137013.733698 -58726.4792035 238.357999452  
-57975.7714073 -135099.549933 -57922.5964022 228.313906033  
-57196.0528015 -133188.254249 -57115.2921151 233.373409281  
-51552.5297523 -119614.755618 -51350.1856111 310.406848852  
-55205.2953888 -128372.546705 -55073.352628 285.947740013  
-53989.7839225 -125443.473203 -53829.9771377 300.68616255  
-52772.2057456 -122526.311688 -52589.5552301 308.504590041  
-51545.684549 -119686.733618 -51369.7254501 425.873852755  
-53478.5118535 -124208.812316 -53306.1972509 464.638672295  
-55355.7308046 -128637.483057 -55197.9641585 533.674622231  
-57073.4961972 -132759.93431 -56950.0291522 599.031079226  
-51550.1423448 -119663.861575 -51364.2011758 428.097817106  
-51551.6923847 -119644.471767 -51358.8492454 401.456873213  
-51552.4024403 -119628.227331 -51354.1889314 359.461374582  
-52951.7132498 -122922.340589 -52762.2161515 353.367834437  
-53125.5314559 -123321.981634 -52934.2539269 399.845807561  
-53300.5785204 -123746.855485 -53114.2302018 433.197261202  
-54330.1296072 -126170.357255 -54150.1460586 331.895099238  
-54660.50698 -126907.481572 -54470.3965655 391.451502341  
-54979.757596 -127683.290497 -54798.914428 441.217850213  
-55656.967311 -129318.32669 -55492.5882004 295.787663942  
-56112.9885135 -130325.41409 -55931.5207811 360.941733288  
-56547.6897197 -131392.5415 -56382.069366 437.775549712  
-49611.8756822 -115159.190645 -49431.3198982 453.023536022  
-47723.4144276 -110710.764317 -47530.2536234 520.382723283  
-45974.6039215 -106553.281917 -45758.3657514 596.134421446  
-47872.1915822 -110856.125744 -47618.4951978 288.77695569  
-49103.3465498 -113785.715363 -48866.7185738 301.045648871  
-50329.9032984 -116703.105374 -50109.9026017 308.278607517  
-49798.125012 -115576.430774 -49612.3667357 428.399160352  
-49975.3966336 -115964.249829 -49781.8939386 397.707689008  
-50150.5080455 -116333.023769 -49945.0595443 352.815458813  
-48110.6482887 -111625.858399 -47920.9520064 435.875728046  
-48431.554396 -112370.45827 -48240.6037999 389.515593016  
-48763.7451023 -113081.611161 -48553.6068791 332.164544538  
-46522.7081163 -107894.227359 -46325.0806426 438.18202046  
-46961.4137233 -108939.114364 -46770.1584263 363.051703795  
-47421.2138884 -109927.274126 -47204.5464043 298.895660085  
-51545.684549 -119686.733618 -51369.7254501 -425.873852755  
-53478.5118535 -124208.812316 -53306.1972509 -464.638672295  
-55355.7308046 -128637.483057 -55197.9641585 -533.674622231  
-57073.4961972 -132759.93431 -56950.0291522 -599.031079226  
-51552.5297523 -119614.755618 -51350.1856111 -310.406848852  
-55205.2953888 -128372.546705 -55073.352628 -285.947740013  
-53989.7839225 -125443.473203 -53829.9771377 -300.68616255  
-52772.2057456 -122526.311688 -52589.5552301 -308.504590041  
-51550.1423448 -119663.861575 -51364.2011758 -428.097817106  
-51551.6923847 -119644.471767 -51358.8492454 -401.456873213  
-51552.4024403 -119628.227331 -51354.1889314 -359.461374582  
-53300.5785204 -123746.855485 -53114.2302018 -433.197261202  
-53125.5314559 -123321.981634 -52934.2539269 -399.845807561  
-52951.7132498 -122922.340589 -52762.2161515 -353.367834438  
-54979.757596 -127683.290497 -54798.914428 -441.217850213  
-54660.50698 -126907.481572 -54470.3965655 -391.451502341  
-54330.1296072 -126170.357255 -54150.1460586 -331.895099238  
-56547.6897197 -131392.5415 -56382.069366 -437.775549712  
-56112.9885135 -130325.41409 -55931.5207811 -360.941733288  
-55656.967311 -129318.32669 -55492.5882004 -295.787663942  
-49611.8756822 -115159.190645 -49431.3198982 -453.023536022  
-47723.4144276 -110710.764317 -47530.2536234 -520.382723283  
-45974.6039215 -106553.281917 -45758.3657514 -596.134421446  
-47872.1915822 -110856.125744 -47618.4951978 -288.776955689  
-49103.3465498 -113785.715363 -48866.7185738 -301.045648872  
-50329.9032984 -116703.105374 -50109.9026017 -308.278607517  
-46522.7081163 -107894.227359 -46325.0806426 -438.182020461  
-46961.4137233 -108939.114364 -46770.1584263 -363.051703795  
-47421.2138884 -109927.274126 -47204.5464043 -298.895660084  
-48110.6482887 -111625.858399 -47920.9520064 -435.875728046  
-48431.554396 -112370.45827 -48240.6037999 -389.515593015  
-48763.7451023 -113081.611161 -48553.6068791 -332.164544538  
-49798.125012 -115576.430774 -49612.3667357 -428.399160352  
-49975.3966336 -115964.249829 -49781.8939386 -397.707689009  
-50150.5080455 -116333.023769 -49945.0595443 -352.815458812  
-55175.0567806 -128369.85407 -55063.4732552 -211.920261906  
-53973.4537398 -125447.41462 -53826.2605079 -230.251785389  
-52764.996407 -122523.460157 -52586.5369693 -239.394607996  
-51552.3495446 -119604.126072 -51346.9426849 -242.768347961  
-50336.7582577 -116684.793036 -50106.465388 -239.960719051  
-49119.3335941 -113760.846566 -48864.054048 -231.786424695  
-47902.4216372 -110838.824628 -47622.3738795 -215.155587029  
-55160.9150195 -128368.710354 -55058.8876119 -141.742616202  
-53961.8044744 -125440.969374 -53820.8321547 -154.067931982  
-52759.685854 -122518.331217 -52583.4051213 -159.086168316  
-51552.1597324 -119596.625388 -51344.6355362 -160.615548439  
-50341.5306402 -116674.999531 -50104.9590514 -159.591733555  
-49130.0088609 -113752.722704 -48864.8194694 -155.362612318  
-47914.7237242 -110825.849171 -47622.1718687 -144.278844853  
-55148.6194748 -128362.885308 -55053.4514347 -70.581718102  
-53957.4595865 -125434.880295 -53817.7019644 -77.568473916  
-52757.1898211 -122512.574886 -52580.929412 -79.8057240095  
-51552.0212745 -119592.154704 -51343.2527934 -80.4224537918  
-50343.645257 -116671.906164 -50104.6654262 -80.1094915139  
-49133.6284387 -113750.177247 -48865.1417058 -78.3130042964  
-47925.8582196 -110823.27513 -47624.7400049 -71.959307338  
-55144.391777 -128360.409674 -55051.4404354 -5.50759438056e-11  
-53955.905007 -125432.152745 -53816.4173256 -4.35260716358e-11  
-52756.6811418 -122510.431643 -52580.1338354 7.77831132837e-11  
-51551.970188 -119590.673958 -51342.7932437 -2.1369572778e-12  
-50344.0077706 -116671.115548 -50104.5369955 -9.38715771781e-11  
-49134.9193438 -113750.035598 -48865.4864825 3.19833048934e-11  
-47929.7117726 -110822.966848 -47625.8035861 1.25170984688e-10  
-55148.6194748 -128362.885308 -55053.4514347 70.5817181019  
-53957.4595865 -125434.880295 -53817.7019644 77.5684739158  
-52757.1898211 -122512.574886 -52580.929412 79.8057240096  
-51552.0212745 -119592.154704 -51343.2527934 80.4224537917  
-50343.645257 -116671.906164 -50104.6654262 80.1094915139  
-49133.6284387 -113750.177247 -48865.1417058 78.3130042965  
-47925.8582196 -110823.27513 -47624.7400049 71.9593073378  
-55160.9150195 -128368.710354 -55058.8876119 141.742616202  
-53961.8044744 -125440.969374 -53820.8321547 154.067931982  
-52759.685854 -122518.331217 -52583.4051213 159.086168316  
-51552.1597324 -119596.625388 -51344.6355362 160.615548439  
-50341.5306402 -116674.999531 -50104.9590514 159.591733555  
-49130.0088609 -113752.722704 -48864.8194694 155.362612318  
-47914.7237242 -110825.849171 -47622.1718687 144.278844853  
-55175.0567806 -128369.85407 -55063.4732552 211.920261906  
-53973.4537398 -125447.41462 -53826.2605079 230.251785389  
-52764.996407 -122523.460157 -52586.5369693 239.394607996  
-51552.3495446 -119604.126072 -51346.9426849 242.768347961  
-50336.7582577 -116684.793036 -50106.465388 239.960719051  
-49119.3335941 -113760.846566 -48864.054048 231.786424695  
-47902.4216372 -110838.824628 -47622.3738795 215.155587028  
-69451.0588815 -159262.679236 -69228.4947598 -1507.61062139  
-71945.0797609 -163832.730002 -72716.2898548 -1.37809763601e-11  
-71572.6264248 -162962.679646 -72040.8554261 -356.425182974  
-71712.4800603 -163452.483705 -72402.1993363 -258.304049817  
-71886.5536479 -163737.315536 -72637.8884894 -133.052084474  
-62673.9841304 -147219.383224 -62968.0102063 2.99031910345e-11  
-64146.4792903 -151194.935058 -64602.4243044 2.53663756666e-11  
-65748.5205885 -155185.260058 -66377.9082056 6.37179198293e-11  
-64637.5464347 -151749.821043 -64916.2102431 -691.612081376  
-62568.4499657 -146531.809614 -62730.0778738 -627.717818502  
-60496.5568711 -141284.675563 -60534.3697303 -506.86014184  
-65587.2146203 -154174.23069 -65939.0397077 -20.8450556506  
-63618.7238909 -149188.387715 -63842.1334819 -127.649834735  
-61647.0666908 -144220.815234 -61760.3645775 -195.724450153  
-65660.4590388 -154741.157888 -66164.8213367 -39.3213258374  
-63923.5614251 -150285.634494 -64262.7587756 -78.2386308013  
-62202.7106703 -145857.556883 -62418.0802659 -116.714149677  
-65721.9181658 -155071.097311 -66321.7627026 -35.7405456787  
-64092.6212635 -150967.938559 -64518.1679467 -41.1434595113  
-62551.6237602 -146877.626747 -62828.775152 -47.0206941257  
-69451.0588815 -159262.679236 -69228.4947598 1507.61062139  
-71572.6264248 -162962.679646 -72040.8554261 356.425182974  
-71712.4800603 -163452.483705 -72402.1993363 258.304049817  
-71886.5536479 -163737.315536 -72637.8884894 133.052084474  
-64637.5464347 -151749.821043 -64916.2102431 691.612081376  
-62568.4499657 -146531.809614 -62730.0778738 627.717818502  
-60496.5568711 -141284.675563 -60534.3697303 506.86014184  
-65721.9181658 -155071.097311 -66321.7627026 35.7405456787  
-64092.6212635 -150967.938559 -64518.1679467 41.1434595113  
-62551.6237602 -146877.626747 -62828.775152 47.0206941258  
-65660.4590388 -154741.157888 -66164.8213367 39.3213258375  
-63923.5614251 -150285.634494 -64262.7587756 78.2386308014  
-62202.7106703 -145857.556883 -62418.0802659 116.714149677  
-65587.2146203 -154174.23069 -65939.0397077 20.8450556506  
-63618.7238909 -149188.387715 -63842.1334819 127.649834736  
-61647.0666908 -144220.815234 -61760.3645775 195.724450153  
-34666.2744584 -80595.7806572 -34578.6165347 1372.37576887  
-38024.0947624 -87539.3851734 -37669.0439807 919.069931426  
-40264.5443328 -92811.9418434 -39922.9458529 733.537139353  
-42440.2283846 -98031.387744 -42141.4848386 553.18204097  
-33320.9099699 -75467.9161833 -32636.647846 -7.59783347348e-11  
-33411.1818981 -76530.9866193 -32982.6505552 430.464897437  
-33417.2349008 -75902.284995 -32795.8559687 313.323446762  
-33347.179298 -75574.5099209 -32676.5067657 163.117137548  
-40101.0242436 -92013.8898906 -39634.4742403 5.96571680944e-11  
-38511.0845706 -88058.9286932 -37971.0039791 8.24300627755e-11  
-36921.8055755 -84107.5728902 -36308.8135397 2.0385471089e-11  
-40239.0631555 -92363.7571567 -39780.8460937 80.8849514674  
-38583.7296584 -88300.233234 -38065.1888677 91.5610954297  
-36945.3604064 -84238.6600543 -36355.2061382 95.0559656193  
-40631.656322 -93402.5343178 -40210.2571919 176.842105635  
-38806.6451568 -89014.1879398 -38346.249929 177.023325649  
-37009.4038201 -84613.1175763 -36486.7564189 163.265641009  
-41250.313108 -95062.7347371 -40893.9143535 265.337682322  
-39195.5035323 -90135.5539384 -38799.3172412 259.464921671  
-37138.6132688 -85194.8525112 -36700.039734 220.784199531  
-34666.2744584 -80595.7806572 -34578.6165347 -1372.37576887  
-33411.1818981 -76530.9866193 -32982.6505552 -430.464897437  
-33417.2349008 -75902.284995 -32795.8559687 -313.323446762  
-33347.179298 -75574.5099209 -32676.5067657 -163.117137548  
-38024.0947624 -87539.3851734 -37669.0439807 -919.069931426  
-40264.5443328 -92811.9418434 -39922.9458529 -733.537139353  
-42440.2283846 -98031.387744 -42141.4848386 -553.18204097  
-41250.313108 -95062.7347371 -40893.9143535 -265.337682322  
-39195.5035323 -90135.5539384 -38799.3172412 -259.464921671  
-37138.6132688 -85194.8525112 -36700.039734 -220.784199531  
-40631.656322 -93402.5343178 -40210.2571919 -176.842105635  
-38806.6451568 -89014.1879398 -38346.249929 -177.02332565  
-37009.4038201 -84613.1175763 -36486.7564189 -163.265641008  
-40239.0631555 -92363.7571567 -39780.8460937 -80.8849514674  
-38583.7296584 -88300.233234 -38065.1888677 -91.5610954298  
-36945.3604064 -84238.6600543 -36355.2061382 -95.0559656194  
-51480.1889976 -119872.477417 -51405.7999245 -453.003961063  
-64890.2490048 -150742.387889 -64606.3417576 -446.993204644  
-60338.4898078 -140303.07346 -60192.4689803 -516.068583737  
-55779.8525564 -129996.071739 -55732.7772887 -494.313334894  
-51541.8867031 -119726.028549 -51380.3745755 -429.228608917  
-51534.2495346 -119769.739938 -51391.1968418 -467.13356881  
-51518.7164164 -119816.179611 -51400.4688083 -507.225806411  
-55250.2419396 -128442.128071 -55107.7110031 -521.601190784  
-54644.1633064 -127001.104173 -54493.5802437 -481.398974815  
-54046.6106779 -125573.19231 -53885.9408963 -448.062751551  
-58877.4375083 -136983.648973 -58758.3259444 -461.557520757  
-57672.5326278 -134122.920648 -57538.6359828 -479.454465489  
-56468.3579967 -131272.859622 -56322.3652856 -466.691523136  
-62576.5381518 -145468.613613 -62413.5455293 -370.950148503  
-60617.4906624 -141053.402609 -60501.2679813 -422.9304075  
-58745.8971051 -136698.843648 -58633.4222261 -448.235853807  
-51480.1889976 -119872.477417 -51405.7999245 453.003961063  
-64890.2490048 -150742.387889 -64606.3417576 446.993204644  
-60338.4898078 -140303.07346 -60192.4689803 516.068583737  
-55779.8525564 -129996.071739 -55732.7772887 494.313334894  
-51541.8867031 -119726.028549 -51380.3745755 429.228608917  
-51534.2495346 -119769.739938 -51391.1968418 467.13356881  
-51518.7164164 -119816.179611 -51400.4688083 507.225806412  
-62576.5381518 -145468.613613 -62413.5455293 370.950148503  
-60617.4906624 -141053.402609 -60501.2679813 422.9304075  
-58745.8971051 -136698.843648 -58633.4222261 448.235853807  
-58877.4375083 -136983.648973 -58758.3259444 461.557520757  
-57672.5326278 -134122.920648 -57538.6359828 479.454465489  
-56468.3579967 -131272.859622 -56322.3652856 466.691523136  
-55250.2419396 -128442.128071 -55107.7110031 521.601190784  
-54644.1633064 -127001.104173 -54493.5802437 481.398974815  
-54046.6106779 -125573.19231 -53885.9408963 448.062751551  
-38282.5556829 -89043.768022 -38197.8971115 514.465314677  
-42824.8611873 -99472.2096167 -42689.1212412 451.659749555  
-47189.6372746 -109705.257223 -47068.4683494 438.138749603  
-47825.5517183 -111189.955581 -47704.6521897 472.653719662  
-48433.3171627 -112527.6486 -48288.2897287 453.139880861  
-49040.2779593 -113870.009865 -48873.0863473 431.066841896  
-44200.3827128 -102590.566862 -44037.2848724 414.887048383  
-45414.4945161 -105371.50781 -45235.8006978 442.878844747  
-46613.7882642 -108141.205985 -46426.4982748 447.046223636  
-40671.8156935 -94095.8035452 -40430.2857716 359.393799049  
-42493.2766574 -98402.1087997 -42268.6156371 432.246001767  
-44310.4267501 -102671.360207 -44094.5360871 449.548120476  
-38282.5556829 -89043.768022 -38197.8971115 -514.465314677  
-42824.8611873 -99472.2096167 -42689.1212412 -451.659749555  
-47189.6372746 -109705.257223 -47068.4683494 -438.138749603  
-40671.8156935 -94095.8035452 -40430.2857716 -359.393799049  
-42493.2766574 -98402.1087997 -42268.6156371 -432.246001767  
-44310.4267501 -102671.360207 -44094.5360871 -449.548120477  
-44200.3827128 -102590.566862 -44037.2848724 -414.887048383  
-45414.4945161 -105371.50781 -45235.8006978 -442.878844747  
-46613.7882642 -108141.205985 -46426.4982748 -447.046223635  
-47825.5517183 -111189.955581 -47704.6521897 -472.653719662  
-48433.3171627 -112527.6486 -48288.2897287 -453.139880861  
-49040.2779593 -113870.009865 -48873.0863473 -431.066841896  
-124666.863343 -228214.608325 -124392.880782 -789.26232257  
-51328.9630606 -120276.67395 -51481.6911031 311.995193709  
-110795.555672 -210764.327975 -110436.003093 1839.93655871  
-86628.1130889 -180665.754147 -86148.9245804 934.058552678  
-65244.3409781 -149950.31057 -65590.9426734 614.481902579  
-113422.763879 -214130.399592 -113138.661542 -2006.92958369  
-98080.9134 -195175.979575 -97872.3526338 -1714.19278413  
-82821.8024765 -176325.761589 -82698.2480196 -1363.85651754  
-51346.1106724 -120385.769111 -51519.5639351 216.702387483  
-51324.3207813 -120163.268698 -51446.2768438 81.6356304932  
-51446.1997405 -120048.612172 -51448.4435737 -146.511373892  
-62386.9413621 -145555.814512 -62418.3691289 342.146830125  
-60406.0512332 -140279.852195 -60205.7710285 104.650189556  
-58101.3572859 -135402.487903 -58051.1535566 -133.866251765  
-78468.4122615 -170772.531095 -78108.2853017 283.879540592  
-71025.1021196 -160035.357589 -70962.7819889 420.604939773  
-64757.083635 -150524.100533 -64585.8574173 166.861185  
-98625.7571191 -195608.23016 -98199.5412784 43.5893684276  
-86541.6902418 -180490.533287 -85996.7367976 30.8597928546  
-74152.1956933 -165340.783162 -73804.549088 99.0543693347  
-124666.863343 -228214.608325 -124392.880782 789.26232257  
-51328.9630606 -120276.67395 -51481.6911031 -311.995193709  
-110795.555672 -210764.327975 -110436.003093 -1839.93655871  
-86628.1130889 -180665.754147 -86148.9245804 -934.058552678  
-65244.3409781 -149950.31057 -65590.9426734 -614.481902579  
-51346.1106724 -120385.769111 -51519.5639351 -216.702387483  
-51324.3207813 -120163.268698 -51446.2768438 -81.6356304931  
-51446.1997405 -120048.612172 -51448.4435737 146.511373892  
-113422.763879 -214130.399592 -113138.661542 2006.92958369  
-98080.9134 -195175.979575 -97872.3526338 1714.19278413  
-82821.8024765 -176325.761589 -82698.2480196 1363.85651754  
-98625.7571191 -195608.23016 -98199.5412784 -43.5893684277  
-86541.6902418 -180490.533287 -85996.7367976 -30.8597928546  
-74152.1956933 -165340.783162 -73804.549088 -99.0543693347  
-78468.4122615 -170772.531095 -78108.2853017 -283.879540591  
-71025.1021196 -160035.357589 -70962.7819889 -420.604939773  
-64757.083635 -150524.100533 -64585.8574173 -166.861185001  
-62386.9413621 -145555.814512 -62418.3691289 -342.146830125  
-60406.0512332 -140279.852195 -60205.7710285 -104.650189556  
-58101.3572859 -135402.487903 -58051.1535566 133.866251765  
-5988.07036217 -14430.6379502 -6125.61249372 -315.654361895  
-12473.8263786 -31744.2778863 -13265.4312795 -1794.7152166  
-25169.8684962 -60502.556406 -25701.7274707 -982.274714607  
-38175.5015691 -90215.7568052 -38517.3775123 -466.41579109  
-11336.9166338 -27283.3993466 -11586.0947941 950.705826974  
-19242.9382457 -45114.9448218 -19307.3649202 1076.82095785  
-27370.1130041 -63665.5664832 -27310.7038462 976.831584796  
-40343.0626073 -95206.1974715 -40664.7780236 -303.1652315  
-42618.4710395 -100093.819411 -42813.6871351 -182.691434924  
-44909.7934512 -104808.80922 -44915.5808015 61.3613974492  
-29348.1852691 -70185.9636156 -29860.2446654 -363.762665561  
-33840.3925391 -79935.7242357 -34132.8350324 -293.733560464  
-38393.3732183 -89666.0871602 -38417.8381135 -69.278181871  
-18465.3553597 -45142.0623599 -19082.2253159 -532.83363388  
-25189.8694788 -59754.4771207 -25483.3039799 -434.331661767  
-31970.3495289 -74700.7956616 -32001.3435571 -124.165845384  
-5988.07036217 -14430.6379502 -6125.61249372 315.654361895  
-11336.9166338 -27283.3993466 -11586.0947941 -950.705826975  
-19242.9382457 -45114.9448218 -19307.3649202 -1076.82095785  
-27370.1130041 -63665.5664832 -27310.7038462 -976.831584797  
-12473.8263786 -31744.2778863 -13265.4312795 1794.7152166  
-25169.8684962 -60502.556406 -25701.7274707 982.274714607  
-38175.5015691 -90215.7568052 -38517.3775123 466.41579109  
-44909.7934512 -104808.80922 -44915.5808015 -61.3613974492  
-42618.4710395 -100093.819411 -42813.6871351 182.691434924  
-40343.0626073 -95206.1974715 -40664.7780236 303.1652315  
-38393.3732183 -89666.0871602 -38417.8381135 69.2781818709  
-33840.3925391 -79935.7242357 -34132.8350324 293.733560464  
-29348.1852691 -70185.9636156 -29860.2446654 363.762665561  
-31970.3495289 -74700.7956616 -32001.3435571 124.165845384  
-25189.8694788 -59754.4771207 -25483.3039799 434.331661767  
-18465.3553597 -45142.0623599 -19082.2253159 532.83363388  
-126003.007689 -230102.00384 -125998.086855 7.04325486822e-12  
-125907.521307 -230006.780525 -125905.609923 -217.892048216  
-125950.047673 -230053.728654 -125947.697119 -184.120934537  
-125987.340576 -230088.675941 -125983.264635 -111.061193681  
-117734.230881 -220054.288696 -117912.7417 -5.37436761761e-12  
-101515.165898 -200204.006996 -101942.22217 -2.66986432962e-12  
-85284.1995159 -180363.584286 -86003.5343666 9.98667815111e-12  
-117786.798551 -220015.416423 -117856.328334 -213.407087958  
-101612.297194 -199999.603746 -101738.363751 -221.621004418  
-85620.7209409 -180213.209544 -85813.2472815 -222.233029862  
-117786.223964 -220024.107022 -117871.020049 -198.056186526  
-101634.206372 -200116.086621 -101844.93903 -225.10215123  
-85455.4942266 -180245.112928 -85868.2770284 -289.770409127  
-117756.956157 -220051.781566 -117904.564221 -123.183509984  
-101558.828625 -200182.049321 -101915.886151 -149.679189339  
-85321.1502303 -180322.772677 -85960.6699187 -181.697740046  
-125907.521307 -230006.780525 -125905.609923 217.892048216  
-125950.047673 -230053.728654 -125947.697119 184.120934537  
-125987.340576 -230088.675941 -125983.264635 111.061193681  
-117756.956157 -220051.781566 -117904.564221 123.183509984  
-101558.828625 -200182.049321 -101915.886151 149.679189339  
-85321.1502303 -180322.772677 -85960.6699187 181.697740046  
-117786.223964 -220024.107022 -117871.020049 198.056186526  
-101634.206372 -200116.086621 -101844.93903 225.10215123  
-85455.4942266 -180245.112928 -85868.2770284 289.770409127  
-117786.798551 -220015.416423 -117856.328334 213.407087958  
-101612.297194 -199999.603746 -101738.363751 221.621004418  
-85620.7209409 -180213.209544 -85813.2472815 222.233029862  
-4106.83638921 -9321.93289429 -4028.63078505 -2.58406629428e-11  
-3566.45198681 -8174.75645286 -3522.3625319 -349.39291327  
-3430.66899211 -9092.13526853 -3756.84127819 -63.2863265464  
-3892.68836744 -9260.53696108 -3945.96759856 23.4405578622  
-8570.37090785 -19292.9956086 -8359.00995494 5.00666175185e-12  
-17374.857396 -39137.6017831 -16953.7377537 -1.44257938928e-11  
-26133.0517121 -58915.3949098 -25514.5339866 3.89164256376e-11  
-26087.5450909 -58993.8138112 -25524.4076706 187.604129585  
-17332.7884428 -39195.0424279 -16958.3492612 158.257207209  
-8538.40172153 -19335.7554895 -8362.2471633 110.431271856  
-25951.3955171 -59214.3068253 -25549.7107027 274.932008016  
-17252.6856257 -39340.681346 -16978.0100915 167.270725395  
-8570.79292362 -19463.9706009 -8410.42905735 128.943785633  
-25816.0238334 -59427.9972271 -25573.2063182 141.825166677  
-17259.1054183 -39606.2540115 -17059.6078289 -29.5974332579  
-8508.3008667 -19363.2102944 -8361.45334833 -33.5018166279  
-3566.45198681 -8174.75645286 -3522.3625319 349.39291327  
-3430.66899211 -9092.13526853 -3756.84127819 63.2863265464  
-3892.68836744 -9260.53696108 -3945.96759856 -23.4405578622  
-8538.40172153 -19335.7554895 -8362.2471633 -110.431271856  
-17332.7884428 -39195.0424279 -16958.3492612 -158.257207209  
-26087.5450909 -58993.8138112 -25524.4076706 -187.604129585  
-8570.79292362 -19463.9706009 -8410.42905735 -128.943785633  
-17252.6856257 -39340.681346 -16978.0100915 -167.270725395  
-25951.3955171 -59214.3068253 -25549.7107027 -274.932008016  
-8508.3008667 -19363.2102944 -8361.45334833 33.5018166279  
-17259.1054183 -39606.2540115 -17059.6078289 29.5974332579  
-25816.0238334 -59427.9972271 -25573.2063182 -141.825166677  
</DataArray>
</PointData>
<CellData>
</CellData>
<Points>
<DataArray type="Float64" Name="Points" NumberOfComponents="3" format="ascii">
0.0 1.2 0.0
0.848528137424 0.848528137424 0.0
0.234108386344 1.1769423365 0.0
0.459220118768 1.10865543904 0.0
0.666684279562 0.997763534804 0.0
0.0 0.6 0.0
0.0 1.05 0.0
0.0 0.9 0.0
0.0 0.75 0.0
0.6 0.6 0.0
0.45 0.6 0.0
0.3 0.6 0.0
0.15 0.6 0.0
0.662132034356 0.662132034356 0.0
0.724264068712 0.724264068712 0.0
0.786396103068 0.786396103068 0.0
0.612513209674 0.898322651094 0.0
0.558342139784 0.79888176739 0.0
0.504171069892 0.699440883692 0.0
0.41941508908 0.981491579275 0.0
0.379610059389 0.854327719512 0.0
0.339805029696 0.727163859754 0.0
0.213081289762 1.03270675237 0.0
0.192054193178 0.888471168244 0.0
0.171027096591 0.744235584121 0.0
-0.848528137424 0.848528137424 0.0
-0.234108386344 1.1769423365 0.0
-0.459220118768 1.10865543904 0.0
-0.666684279562 0.997763534804 0.0
-0.6 0.6 0.0
-0.786396103068 0.786396103068 0.0
-0.724264068712 0.724264068712 0.0
-0.662132034356 0.662132034356 0.0
-0.45 0.6 0.0
-0.3 0.6 0.0
-0.15 0.6 0.0
-0.213081289762 1.03270675237 0.0
-0.192054193178 0.888471168244 0.0
-0.171027096591 0.744235584121 0.0
-0.41941508908 0.981491579275 0.0
-0.379610059389 0.854327719512 0.0
-0.339805029696 0.727163859754 0.0
-0.612513209674 0.898322651094 0.0
-0.558342139784 0.79888176739 0.0
-0.504171069892 0.699440883692 0.0
-0.6 -0.6 0.0
0.0 -0.6 0.0
-0.45 -0.6 0.0
-0.3 -0.6 0.0
-0.15 -0.6 0.0
-0.848528137424 -0.848528137424 0.0
-0.662132034356 -0.662132034356 0.0
-0.724264068712 -0.724264068712 0.0
-0.786396103068 -0.786396103068 0.0
0.0 -1.2 0.0
-0.234108386344 -1.1769423365 0.0
-0.459220118768 -1.10865543904 0.0
-0.666684279562 -0.997763534804 0.0
0.0 -1.05 0.0
0.0 -0.9 0.0
0.0 -0.75 0.0
-0.171027096591 -0.744235584121 0.0
-0.192054193178 -0.888471168244 0.0
-0.213081289762 -1.03270675237 0.0
-0.339805029696 -0.727163859754 0.0
-0.379610059389 -0.854327719512 0.0
-0.41941508908 -0.981491579275 0.0
-0.504171069892 -0.699440883692 0.0
-0.558342139784 -0.79888176739 0.0
-0.612513209674 -0.898322651094 0.0
0.848528137424 -0.848528137424 0.0
0.234108386344 -1.1769423365 0.0
0.459220118768 -1.10865543904 0.0
0.666684279562 -0.997763534804 0.0
0.6 -0.6 0.0
0.662132034356 -0.662132034356 0.0
0.724264068712 -0.724264068712 0.0
0.786396103068 -0.786396103068 0.0
0.45 -0.6 0.0
0.3 -0.6 0.0
0.15 -0.6 0.0
0.213081289762 -1.03270675237 0.0
0.192054193178 -0.888471168244 0.0
0.171027096591 -0.744235584121 0.0
0.41941508908 -0.981491579275 0.0
0.379610059389 -0.854327719512 0.0
0.339805029696 -0.727163859754 0.0
0.612513209674 -0.898322651094 0.0
0.558342139784 -0.79888176739 0.0
0.504171069892 -0.699440883692 0.0
0.6 0.0 0.0
0.6 -0.45 0.0
0.6 -0.3 0.0
0.6 -0.15 0.0
1.2 0.0 0.0
1.1769423365 -0.234108386344 0.0
1.10865543904 -0.459220118768 0.0
0.997763534804 -0.666684279562 0.0
1.05 0.0 0.0
0.9 0.0 0.0
0.75 0.0 0.0
0.744235584121 -0.171027096591 0.0
0.888471168244 -0.192054193178 0.0
1.03270675237 -0.213081289762 0.0
0.727163859754 -0.339805029696 0.0
0.854327719512 -0.379610059389 0.0
0.981491579275 -0.41941508908 0.0
0.699440883692 -0.504171069892 0.0
0.79888176739 -0.558342139784 0.0
0.898322651094 -0.612513209674 0.0
1.1769423365 0.234108386344 0.0
1.10865543904 0.459220118768 0.0
0.997763534804 0.666684279562 0.0
0.6 0.45 0.0
0.6 0.3 0.0
0.6 0.15 0.0
1.03270675237 0.213081289762 0.0
0.888471168244 0.192054193178 0.0
0.744235584121 0.171027096591 0.0
0.981491579275 0.41941508908 0.0
0.854327719512 0.379610059389 0.0
0.727163859754 0.339805029696 0.0
0.898322651094 0.612513209674 0.0
0.79888176739 0.558342139784 0.0
0.699440883692 0.504171069892 0.0
-1.2 0.0 0.0
-1.1769423365 -0.234108386344 0.0
-1.10865543904 -0.459220118768 0.0
-0.997763534804 -0.666684279562 0.0
-0.6 0.0 0.0
-0.6 -0.45 0.0
-0.6 -0.3 0.0
-0.6 -0.15 0.0
-1.05 0.0 0.0
-0.9 0.0 0.0
-0.75 0.0 0.0
-1.03270675237 -0.213081289762 0.0
-0.888471168244 -0.192054193178 0.0
-0.744235584121 -0.171027096591 0.0
-0.981491579275 -0.41941508908 0.0
-0.854327719512 -0.379610059389 0.0
-0.727163859754 -0.339805029696 0.0
-0.898322651094 -0.612513209674 0.0
-0.79888176739 -0.558342139784 0.0
-0.699440883692 -0.504171069892 0.0
-1.1769423365 0.234108386344 0.0
-1.10865543904 0.459220118768 0.0
-0.997763534804 0.666684279562 0.0
-0.6 0.45 0.0
-0.6 0.3 0.0
-0.6 0.15 0.0
-0.898322651094 0.612513209674 0.0
-0.79888176739 0.558342139784 0.0
-0.699440883692 0.504171069892 0.0
-0.981491579275 0.41941508908 0.0
-0.854327719512 0.379610059389 0.0
-0.727163859754 0.339805029696 0.0
-1.03270675237 0.213081289762 0.0
-0.888471168244 0.192054193178 0.0
-0.744235584121 0.171027096591 0.0
-0.45 -0.45 0.0
-0.45 -0.3 0.0
-0.45 -0.15 0.0
-0.45 -2.77555756156e-17 0.0
-0.45 0.15 0.0
-0.45 0.3 0.0
-0.45 0.45 0.0
-0.3 -0.45 0.0
-0.3 -0.3 0.0
-0.3 -0.15 0.0
-0.3 0.0 0.0
-0.3 0.15 0.0
-0.3 0.3 0.0
-0.3 0.45 0.0
-0.15 -0.45 0.0
-0.15 -0.3 0.0
-0.15 -0.15 0.0
-0.15 0.0 0.0
-0.15 0.15 0.0
-0.15 0.3 0.0
-0.15 0.45 0.0
0.0 -0.45 0.0
0.0 -0.3 0.0
0.0 -0.15 0.0
0.0 0.0 0.0
0.0 0.15 0.0
0.0 0.3 0.0
0.0 0.45 0.0
0.15 -0.45 0.0
0.15 -0.3 0.0
0.15 -0.15 0.0
0.15 0.0 0.0
0.15 0.15 0.0
0.15 0.3 0.0
0.15 0.45 0.0
0.3 -0.45 0.0
0.3 -0.3 0.0
0.3 -0.15 0.0
0.3 0.0 0.0
0.3 0.15 0.0
0.3 0.3 0.0
0.3 0.45 0.0
0.45 -0.45 0.0
0.45 -0.3 0.0
0.45 -0.15 0.0
0.45 0.0 0.0
0.45 0.15 0.0
0.45 0.3 0.0
0.45 0.45 0.0
-2.0 -2.0 0.0
0.0 -2.0 0.0
-1.5 -2.0 0.0
-1.0 -2.0 0.0
-0.5 -2.0 0.0
0.0 -1.4 0.0
0.0 -1.6 0.0
0.0 -1.8 0.0
-1.71213203436 -1.71213203436 0.0
-1.42426406871 -1.42426406871 0.0
-1.13639610307 -1.13639610307 0.0
-1.29167106987 -1.74944088369 0.0
-1.08334213976 -1.49888176739 0.0
-0.875013209653 -1.24832265109 0.0
-0.864805029675 -1.77716385975 0.0
-0.729610059361 -1.55432771951 0.0
-0.594415089059 -1.33149157928 0.0
-0.433527096569 -1.79423558412 0.0
-0.367054193149 -1.58847116824 0.0
-0.300581289741 -1.38270675237 0.0
2.0 -2.0 0.0
1.5 -2.0 0.0
1.0 -2.0 0.0
0.5 -2.0 0.0
1.71213203436 -1.71213203436 0.0
1.42426406871 -1.42426406871 0.0
1.13639610307 -1.13639610307 0.0
0.433527096569 -1.79423558412 0.0
0.367054193149 -1.58847116824 0.0
0.300581289741 -1.38270675237 0.0
0.864805029675 -1.77716385975 0.0
0.729610059361 -1.55432771951 0.0
0.594415089059 -1.33149157928 0.0
1.29167106987 -1.74944088369 0.0
1.08334213976 -1.49888176739 0.0
0.875013209653 -1.24832265109 0.0
2.0 2.0 0.0
1.71213203436 1.71213203436 0.0
1.42426406871 1.42426406871 0.0
1.13639610307 1.13639610307 0.0
0.0 2.0 0.0
1.5 2.0 0.0
1.0 2.0 0.0
0.5 2.0 0.0
0.0 1.4 0.0
0.0 1.6 0.0
0.0 1.8 0.0
0.300581289741 1.38270675237 0.0
0.367054193149 1.58847116824 0.0
0.433527096569 1.79423558412 0.0
0.594415089059 1.33149157928 0.0
0.729610059361 1.55432771951 0.0
0.864805029675 1.77716385975 0.0
0.875013209653 1.24832265109 0.0
1.08334213976 1.49888176739 0.0
1.29167106987 1.74944088369 0.0
-2.0 2.0 0.0
-1.5 2.0 0.0
-1.0 2.0 0.0
-0.5 2.0 0.0
-1.71213203436 1.71213203436 0.0
-1.42426406871 1.42426406871 0.0
-1.13639610307 1.13639610307 0.0
-0.875013209653 1.24832265109 0.0
-1.08334213976 1.49888176739 0.0
-1.29167106987 1.74944088369 0.0
-0.594415089059 1.33149157928 0.0
-0.729610059361 1.55432771951 0.0
-0.864805029675 1.77716385975 0.0
-0.300581289741 1.38270675237 0.0
-0.367054193149 1.58847116824 0.0
-0.433527096569 1.79423558412 0.0
-2.0 0.0 0.0
-2.0 -1.5 0.0
-2.0 -1.0 0.0
-2.0 -0.5 0.0
-1.4 0.0 0.0
-1.6 0.0 0.0
-1.8 0.0 0.0
-1.79423558412 -0.433527096569 0.0
-1.58847116824 -0.367054193149 0.0
-1.38270675237 -0.300581289741 0.0
-1.77716385975 -0.864805029675 0.0
-1.55432771951 -0.729610059361 0.0
-1.33149157928 -0.594415089059 0.0
-1.74944088369 -1.29167106987 0.0
-1.49888176739 -1.08334213976 0.0
-1.24832265109 -0.875013209653 0.0
2.0 0.0 0.0
2.0 -1.5 0.0
2.0 -1.0 0.0
2.0 -0.5 0.0
1.4 0.0 0.0
1.6 0.0 0.0
1.8 0.0 0.0
1.74944088369 -1.29167106987 0.0
1.49888176739 -1.08334213976 0.0
1.24832265109 -0.875013209653 0.0
1.77716385975 -0.864805029675 0.0
1.55432771951 -0.729610059361 0.0
1.33149157928 -0.594415089059 0.0
1.79423558412 -0.433527096569 0.0
1.58847116824 -0.367054193149 0.0
1.38270675237 -0.300581289741 0.0
2.0 1.5 0.0
2.0 1.0 0.0
2.0 0.5 0.0
1.79423558412 0.433527096569 0.0
1.58847116824 0.367054193149 0.0
1.38270675237 0.300581289741 0.0
1.77716385975 0.864805029675 0.0
1.55432771951 0.729610059361 0.0
1.33149157928 0.594415089059 0.0
1.74944088369 1.29167106987 0.0
1.49888176739 1.08334213976 0.0
1.24832265109 0.875013209653 0.0
-2.0 1.5 0.0
-2.0 1.0 0.0
-2.0 0.5 0.0
-1.74944088369 1.29167106987 0.0
-1.49888176739 1.08334213976 0.0
-1.24832265109 0.875013209653 0.0
-1.77716385975 0.864805029675 0.0
-1.55432771951 0.729610059361 0.0
-1.33149157928 0.594415089059 0.0
-1.79423558412 0.433527096569 0.0
-1.58847116824 0.367054193149 0.0
-1.38270675237 0.300581289741 0.0
-6.0 -6.0 0.0
-6.0 0.0 0.0
-6.0 -4.5 0.0
-6.0 -3.0 0.0
-6.0 -1.5 0.0
-5.0 -5.0 0.0
-4.0 -4.0 0.0
-3.0 -3.0 0.0
-5.0 0.0 0.0
-4.0 0.0 0.0
-3.0 0.0 0.0
-5.0 -1.25 0.0
-4.0 -1.0 0.0
-3.0 -0.75 0.0
-5.0 -2.5 0.0
-4.0 -2.0 0.0
-3.0 -1.5 0.0
-5.0 -3.75 0.0
-4.0 -3.0 0.0
-3.0 -2.25 0.0
6.0 -6.0 0.0
6.0 -1.7763568394e-15 0.0
6.0 -4.5 0.0
6.0 -3.0 0.0
6.0 -1.5 0.0
5.0 -1.33226762955e-15 0.0
4.0 -8.881784197e-16 0.0
3.0 -4.4408920985e-16 0.0
5.0 -5.0 0.0
4.0 -4.0 0.0
3.0 -3.0 0.0
5.0 -3.75 0.0
4.0 -3.0 0.0
3.0 -2.25 0.0
5.0 -2.5 0.0
4.0 -2.0 0.0
3.0 -1.5 0.0
5.0 -1.25 0.0
4.0 -1.0 0.0
3.0 -0.75 0.0
6.0 6.0 0.0
6.0 4.5 0.0
6.0 3.0 0.0
6.0 1.5 0.0
5.0 5.0 0.0
4.0 4.0 0.0
3.0 3.0 0.0
5.0 1.25 0.0
4.0 1.0 0.0
3.0 0.75 0.0
5.0 2.5 0.0
4.0 2.0 0.0
3.0 1.5 0.0
5.0 3.75 0.0
4.0 3.0 0.0
3.0 2.25 0.0
-6.0 6.0 0.0
-5.0 5.0 0.0
-4.0 4.0 0.0
-3.0 3.0 0.0
-6.0 4.5 0.0
-6.0 3.0 0.0
-6.0 1.5 0.0
-3.0 0.75 0.0
-4.0 1.0 0.0
-5.0 1.25 0.0
-3.0 1.5 0.0
-4.0 2.0 0.0
-5.0 2.5 0.0
-3.0 2.25 0.0
-4.0 3.0 0.0
-5.0 3.75 0.0
0.0 -6.0 0.0
-4.5 -6.0 0.0
-3.0 -6.0 0.0
-1.5 -6.0 0.0
0.0 -5.0 0.0
0.0 -4.0 0.0
0.0 -3.0 0.0
-3.75 -5.0 0.0
-3.0 -4.0 0.0
-2.25 -3.0 0.0
-2.5 -5.0 0.0
-2.0 -4.0 0.0
-1.5 -3.0 0.0
-1.25 -5.0 0.0
-1.0 -4.0 0.0
-0.75 -3.0 0.0
4.5 -6.0 0.0
3.0 -6.0 0.0
1.5 -6.0 0.0
1.25 -5.0 0.0
1.0 -4.0 0.0
0.75 -3.0 0.0
2.5 -5.0 0.0
2.0 -4.0 0.0
1.5 -3.0 0.0
3.75 -5.0 0.0
3.0 -4.0 0.0
2.25 -3.0 0.0
0.0 6.0 0.0
4.5 6.0 0.0
3.0 6.0 0.0
1.5 6.0 0.0
0.0 5.0 0.0
0.0 4.0 0.0
0.0 3.0 0.0
0.75 3.0 0.0
1.0 4.0 0.0
1.25 5.0 0.0
1.5 3.0 0.0
2.0 4.0 0.0
2.5 5.0 0.0
2.25 3.0 0.0
3.0 4.0 0.0
3.75 5.0 0.0
-4.5 6.0 0.0
-3.0 6.0 0.0
-1.5 6.0 0.0
-1.25 5.0 0.0
-1.0 4.0 0.0
-0.75 3.0 0.0
-2.5 5.0 0.0
-2.0 4.0 0.0
-1.5 3.0 0.0
-3.75 5.0 0.0
-3.0 4.0 0.0
-2.25 3.0 0.0
</DataArray>
</Points>
<Cells>
<DataArray type="Int64" Name="connectivity" format="ascii">
209 211 220 217 
211 212 223 220 
212 213 226 223 
213 210 216 226 
217 220 221 218 
220 223 224 221 
223 226 227 224 
226 216 215 227 
218 221 222 219 
221 224 225 222 
224 227 228 225 
227 215 214 228 
219 222 57 50 
222 225 56 57 
225 228 55 56 
228 214 54 55 
210 232 236 216 
232 231 239 236 
231 230 242 239 
230 229 233 242 
216 236 237 215 
236 239 240 237 
239 242 243 240 
242 233 234 243 
215 237 238 214 
237 240 241 238 
240 243 244 241 
243 234 235 244 
214 238 71 54 
238 241 72 71 
241 244 73 72 
244 235 70 73 
0 2 256 253 
2 3 259 256 
3 4 262 259 
4 1 248 262 
253 256 257 254 
256 259 260 257 
259 262 263 260 
262 248 247 263 
254 257 258 255 
257 260 261 258 
260 263 264 261 
263 247 246 264 
255 258 252 249 
258 261 251 252 
261 264 250 251 
264 246 245 250 
25 28 272 271 
28 27 275 272 
27 26 278 275 
26 0 253 278 
271 272 273 270 
272 275 276 273 
275 278 279 276 
278 253 254 279 
270 273 274 269 
273 276 277 274 
276 279 280 277 
279 254 255 280 
269 274 266 265 
274 277 267 266 
277 280 268 267 
280 255 249 268 
281 284 288 287 
284 283 291 288 
283 282 294 291 
282 209 217 294 
287 288 289 286 
288 291 292 289 
291 294 295 292 
294 217 218 295 
286 289 290 285 
289 292 293 290 
292 295 296 293 
295 218 219 296 
285 290 126 125 
290 293 127 126 
293 296 128 127 
296 219 50 128 
229 298 304 233 
298 299 307 304 
299 300 310 307 
300 297 303 310 
233 304 305 234 
304 307 308 305 
307 310 311 308 
310 303 302 311 
234 305 306 235 
305 308 309 306 
308 311 312 309 
311 302 301 312 
235 306 97 70 
306 309 96 97 
309 312 95 96 
312 301 94 95 
297 315 316 303 
315 314 319 316 
314 313 322 319 
313 245 246 322 
303 316 317 302 
316 319 320 317 
319 322 323 320 
322 246 247 323 
302 317 318 301 
317 320 321 318 
320 323 324 321 
323 247 248 324 
301 318 110 94 
318 321 111 110 
321 324 112 111 
324 248 1 112 
265 325 328 269 
325 326 331 328 
326 327 334 331 
327 281 287 334 
269 328 329 270 
328 331 332 329 
331 334 335 332 
334 287 286 335 
270 329 330 271 
329 332 333 330 
332 335 336 333 
335 286 285 336 
271 330 147 25 
330 333 146 147 
333 336 145 146 
336 285 125 145 
338 341 348 345 
341 340 351 348 
340 339 354 351 
339 337 342 354 
345 348 349 346 
348 351 352 349 
351 354 355 352 
354 342 343 355 
346 349 350 347 
349 352 353 350 
352 355 356 353 
355 343 344 356 
347 350 284 281 
350 353 283 284 
353 356 282 283 
356 344 209 282 
357 359 368 365 
359 360 371 368 
360 361 374 371 
361 358 362 374 
365 368 369 366 
368 371 372 369 
371 374 375 372 
374 362 363 375 
366 369 370 367 
369 372 373 370 
372 375 376 373 
375 363 364 376 
367 370 298 229 
370 373 299 298 
373 376 300 299 
376 364 297 300 
358 380 384 362 
380 379 387 384 
379 378 390 387 
378 377 381 390 
362 384 385 363 
384 387 388 385 
387 390 391 388 
390 381 382 391 
363 385 386 364 
385 388 389 386 
388 391 392 389 
391 382 383 392 
364 386 315 297 
386 389 314 315 
389 392 313 314 
392 383 245 313 
281 327 400 347 
327 326 403 400 
326 325 406 403 
325 265 396 406 
347 400 401 346 
400 403 404 401 
403 406 407 404 
406 396 395 407 
346 401 402 345 
401 404 405 402 
404 407 408 405 
407 395 394 408 
345 402 399 338 
402 405 398 399 
405 408 397 398 
408 394 393 397 
337 410 416 342 
410 411 419 416 
411 412 422 419 
412 409 413 422 
342 416 417 343 
416 419 420 417 
419 422 423 420 
422 413 414 423 
343 417 418 344 
417 420 421 418 
420 423 424 421 
423 414 415 424 
344 418 211 209 
418 421 212 211 
421 424 213 212 
424 415 210 213 
409 427 428 413 
427 426 431 428 
426 425 434 431 
425 357 365 434 
413 428 429 414 
428 431 432 429 
431 434 435 432 
434 365 366 435 
414 429 430 415 
429 432 433 430 
432 435 436 433 
435 366 367 436 
415 430 232 210 
430 433 231 232 
433 436 230 231 
436 367 229 230 
249 252 444 443 
252 251 447 444 
251 250 450 447 
250 245 383 450 
443 444 445 442 
444 447 448 445 
447 450 451 448 
450 383 382 451 
442 445 446 441 
445 448 449 446 
448 451 452 449 
451 382 381 452 
441 446 440 437 
446 449 439 440 
449 452 438 439 
452 381 377 438 
437 455 456 441 
455 454 459 456 
454 453 462 459 
453 393 394 462 
441 456 457 442 
456 459 460 457 
459 462 463 460 
462 394 395 463 
442 457 458 443 
457 460 461 458 
460 463 464 461 
463 395 396 464 
443 458 268 249 
458 461 267 268 
461 464 266 267 
464 396 265 266 
1 4 16 15 
4 3 19 16 
3 2 22 19 
2 0 6 22 
15 16 17 14 
16 19 20 17 
19 22 23 20 
22 6 7 23 
14 17 18 13 
17 20 21 18 
20 23 24 21 
23 7 8 24 
13 18 10 9 
18 21 11 10 
21 24 12 11 
24 8 5 12 
0 26 36 6 
26 27 39 36 
27 28 42 39 
28 25 30 42 
6 36 37 7 
36 39 40 37 
39 42 43 40 
42 30 31 43 
7 37 38 8 
37 40 41 38 
40 43 44 41 
43 31 32 44 
8 38 35 5 
38 41 34 35 
41 44 33 34 
44 32 29 33 
46 49 61 60 
49 48 64 61 
48 47 67 64 
47 45 51 67 
60 61 62 59 
61 64 65 62 
64 67 68 65 
67 51 52 68 
59 62 63 58 
62 65 66 63 
65 68 69 66 
68 52 53 69 
58 63 55 54 
63 66 56 55 
66 69 57 56 
69 53 50 57 
54 71 81 58 
71 72 84 81 
72 73 87 84 
73 70 77 87 
58 81 82 59 
81 84 85 82 
84 87 88 85 
87 77 76 88 
59 82 83 60 
82 85 86 83 
85 88 89 86 
88 76 75 89 
60 83 80 46 
83 86 79 80 
86 89 78 79 
89 75 74 78 
90 93 101 100 
93 92 104 101 
92 91 107 104 
91 74 75 107 
100 101 102 99 
101 104 105 102 
104 107 108 105 
107 75 76 108 
99 102 103 98 
102 105 106 103 
105 108 109 106 
108 76 77 109 
98 103 95 94 
103 106 96 95 
106 109 97 96 
109 77 70 97 
94 110 116 98 
110 111 119 116 
111 112 122 119 
112 1 15 122 
98 116 117 99 
116 119 120 117 
119 122 123 120 
122 15 14 123 
99 117 118 100 
117 120 121 118 
120 123 124 121 
123 14 13 124 
100 118 115 90 
118 121 114 115 
121 124 113 114 
124 13 9 113 
125 126 136 133 
126 127 139 136 
127 128 142 139 
128 50 53 142 
133 136 137 134 
136 139 140 137 
139 142 143 140 
142 53 52 143 
134 137 138 135 
137 140 141 138 
140 143 144 141 
143 52 51 144 
135 138 132 129 
138 141 131 132 
141 144 130 131 
144 51 45 130 
25 147 151 30 
147 146 154 151 
146 145 157 154 
145 125 133 157 
30 151 152 31 
151 154 155 152 
154 157 158 155 
157 133 134 158 
31 152 153 32 
152 155 156 153 
155 158 159 156 
158 134 135 159 
32 153 148 29 
153 156 149 148 
156 159 150 149 
159 135 129 150 
45 47 160 130 
47 48 167 160 
48 49 174 167 
49 46 181 174 
46 80 188 181 
80 79 195 188 
79 78 202 195 
78 74 91 202 
130 160 161 131 
160 167 168 161 
167 174 175 168 
174 181 182 175 
181 188 189 182 
188 195 196 189 
195 202 203 196 
202 91 92 203 
131 161 162 132 
161 168 169 162 
168 175 176 169 
175 182 183 176 
182 189 190 183 
189 196 197 190 
196 203 204 197 
203 92 93 204 
132 162 163 129 
162 169 170 163 
169 176 177 170 
176 183 184 177 
183 190 191 184 
190 197 198 191 
197 204 205 198 
204 93 90 205 
129 163 164 150 
163 170 171 164 
170 177 178 171 
177 184 185 178 
184 191 192 185 
191 198 199 192 
198 205 206 199 
205 90 115 206 
150 164 165 149 
164 171 172 165 
171 178 179 172 
178 185 186 179 
185 192 193 186 
192 199 200 193 
199 206 207 200 
206 115 114 207 
149 165 166 148 
165 172 173 166 
172 179 180 173 
179 186 187 180 
186 193 194 187 
193 200 201 194 
200 207 208 201 
207 114 113 208 
148 166 33 29 
166 173 34 33 
173 180 35 34 
180 187 5 35 
187 194 12 5 
194 201 11 12 
201 208 10 11 
208 113 9 10 
</DataArray>
<DataArray type="Int64" Name="offsets" format="ascii">
4
8
12
16
20
24
28
32
36
40
44
48
52
56
60
64
68
72
76
80
84
88
92
96
100
104
108
112
116
120
124
128
132
136
140
144
148
152
156
160
164
168
172
176
180
184
188
192
196
200
204
208
212
216
220
224
228
232
236
240
244
248
252
256
260
264
268
272
276
280
284
288
292
296
300
304
308
312
316
320
324
328
332
336
340
344
348
352
356
360
364
368
372
376
380
384
388
392
396
400
404
408
412
416
420
424
428
432
436
440
444
448
452
456
460
464
468
472
476
480
484
488
492
496
500
504
508
512
516
520
524
528
532
536
540
544
548
552
556
560
564
568
572
576
580
584
588
592
596
600
604
608
612
616
620
624
628
632
636
640
644
648
652
656
660
664
668
672
676
680
684
688
692
696
700
704
708
712
716
720
724
728
732
736
740
744
748
752
756
760
764
768
772
776
780
784
788
792
796
800
804
808
812
816
820
824
828
832
836
840
844
848
852
856
860
864
868
872
876
880
884
888
892
896
900
904
908
912
916
920
924
928
932
936
940
944
948
952
956
960
964
968
972
976
980
984
988
992
996
1000
1004
1008
1012
1016
1020
1024
1028
1032
1036
1040
1044
1048
1052
1056
1060
1064
1068
1072
1076
1080
1084
1088
1092
1096
1100
1104
1108
1112
1116
1120
1124
1128
1132
1136
1140
1144
1148
1152
1156
1160
1164
1168
1172
1176
1180
1184
1188
1192
1196
1200
1204
1208
1212
1216
1220
1224
1228
1232
1236
1240
1244
1248
1252
1256
1260
1264
1268
1272
1276
1280
1284
1288
1292
1296
1300
1304
1308
1312
1316
1320
1324
1328
1332
1336
1340
1344
1348
1352
1356
1360
1364
1368
1372
1376
1380
1384
1388
1392
1396
1400
1404
1408
1412
1416
1420
1424
1428
1432
1436
1440
1444
1448
1452
1456
1460
1464
1468
1472
1476
1480
1484
1488
1492
1496
1500
1504
1508
1512
1516
1520
1524
1528
1532
1536
1540
1544
1548
1552
1556
1560
1564
1568
1572
1576
1580
1584
1588
1592
1596
1600
1604
1608
1612
1616
1620
1624
1628
1632
1636
1640
1644
1648
1652
1656
1660
1664
1668
1672
1676
1680
1684
1688
1692
1696
1700
1704
1708
1712
1716
1720
1724
1728
1732
1736
1740
1744
1748
1752
1756
1760
1764
1768
1772
1776
1780
1784
1788
1792
</DataArray>
<DataArray type="UInt8" Name="types" format="ascii" RangeMin="9" RangeMax="9">
9
9
9
9
9
9
9
9
9
9
9
9
9
9
9
9
9
9
9
9
9
9
9
9
9
9
9
9
9
9
9
9
9
9
9
9
9
9
9
9
9
9
9
9
9
9
9
9
9
9
9
9
9
9
9
9
9
9
9
9
9
9
9
9
9
9
9
9
9
9
9
9
9
9
9
9
9
9
9
9
9
9
9
9
9
9
9
9
9
9
9
9
9
9
9
9
9
9
9
9
9
9
9
9
9
9
9
9
9
9
9
9
9
9
9
9
9
9
9
9
9
9
9
9
9
9
9
9
9
9
9
9
9
9
9
9
9
9
9
9
9
9
9
9
9
9
9
9
9
9
9
9
9
9
9
9
9
9
9
9
9
9
9
9
9
9
9
9
9
9
9
9
9
9
9
9
9
9
9
9
9
9
9
9
9
9
9
9
9
9
9
9
9
9
9
9
9
9
9
9
9
9
9
9
9
9
9
9
9
9
9
9
9
9
9
9
9
9
9
9
9
9
9
9
9
9
9
9
9
9
9
9
9
9
9
9
9
9
9
9
9
9
9
9
9
9
9
9
9
9
9
9
9
9
9
9
9
9
9
9
9
9
9
9
9
9
9
9
9
9
9
9
9
9
9
9
9
9
9
9
9
9
9
9
9
9
9
9
9
9
9
9
9
9
9
9
9
9
9
9
9
9
9
9
9
9
9
9
9
9
9
9
9
9
9
9
9
9
9
9
9
9
9
9
9
9
9
9
9
9
9
9
9
9
9
9
9
9
9
9
9
9
9
9
9
9
9
9
9
9
9
9
9
9
9
9
9
9
9
9
9
9
9
9
9
9
9
9
9
9
9
9
9
9
9
9
9
9
9
9
9
9
9
9
9
9
9
9
9
9
9
9
9
9
9
9
9
9
9
9
9
9
9
9
9
9
9
9
9
9
9
9
9
9
9
9
9
9
9
9
9
9
9
9
9
9
9
9
9
9
9
9
9
9
9
9
9
9
9
9
9
9
9
9
9
9
9
9
</DataArray>
</Cells>
</Piece>
</UnstructuredGrid>
</VTKFile>
