<?xml version="1.0"?>
<VTKFile type="UnstructuredGrid" version="0.1" byte_order="LittleEndian" compressor="vtkZLibDataCompressor">
<UnstructuredGrid>
<Piece NumberOfPoints="465" NumberOfCells="256">
<PointData>
<DataArray type="Float64" Name="displacement" NumberOfComponents="3" format="ascii" >
-8.13275093179e-18 -0.00593791154123  0.
-0.000163095441059 -0.00555139131974  0.
-3.74229309661e-05 -0.00591093324844  0.
-7.5171614844e-05 -0.00583306686891  0.
-0.000114264535479 -0.00571088031918  0.
1.89327775306e-18 -0.00509717615704  0.
-6.5867764942e-18 -0.00572941181015  0.
-4.3612916015e-18 -0.00551950943518  0.
-1.21606052008e-18 -0.00530867073068  0.
-0.000137716322596 -0.00514141901157  0.
-0.000103779486161 -0.0051203089022  0.
-6.93875328429e-05 -0.00510701137822  0.
-3.47408160623e-05 -0.00509956927333  0.
-0.000145900093593 -0.00524074374037  0.
-0.000152629375485 -0.00534209244741  0.
-0.000158105695238 -0.00544567673776  0.
-0.000113649826361 -0.00556304062847  0.
-0.000111743943699 -0.00541527447554  0.
-0.00010852054706 -0.0052676861107  0.
-7.35386990511e-05 -0.00565287974922  0.
-7.30333092207e-05 -0.00547149544227  0.
-7.18816290811e-05 -0.00528941989509  0.
-3.63535104121e-05 -0.00570984458487  0.
-3.60858988917e-05 -0.00550721918618  0.
-3.57789244101e-05 -0.00530370487074  0.
0.000163095441059 -0.00555139131974  0.
3.74229309661e-05 -0.00591093324844  0.
7.51716148439e-05 -0.00583306686891  0.
0.000114264535479 -0.00571088031918  0.
0.000137716322596 -0.00514141901157  0.
0.000158105695238 -0.00544567673776  0.
0.000152629375485 -0.00534209244741  0.
0.000145900093593 -0.00524074374037  0.
0.000103779486161 -0.0051203089022  0.
6.93875328429e-05 -0.00510701137822  0.
3.47408160623e-05 -0.00509956927333  0.
3.63535104121e-05 -0.00570984458487  0.
3.60858988917e-05 -0.00550721918618  0.
3.577892441e-05 -0.00530370487074  0.
7.35386990511e-05 -0.00565287974922  0.
7.30333092207e-05 -0.00547149544227  0.
7.18816290811e-05 -0.00528941989509  0.
0.000113649826361 -0.00556304062847  0.
0.000111743943699 -0.00541527447554  0.
0.00010852054706 -0.0052676861107  0.
0.000186506420605 -0.00336499455138  0.
1.14700347233e-17 -0.00336925109882  0.
0.000140978795316 -0.00336764359139  0.
9.43701217612e-05 -0.00336881087411  0.
4.72677327756e-05 -0.00336918293009  0.
0.00025018983622 -0.00296360747678  0.
0.000203999660274 -0.00326820142131  0.
0.000220309412171 -0.00316903616279  0.
0.000235342489947 -0.00306722575683  0.
5.35615952289e-18 -0.00245634200697  0.
6.173638783e-05 -0.00249239970503  0.
0.000121955122131 -0.00259404320717  0.
0.000184688442516 -0.00274959801721  0.
8.95634867614e-18 -0.00268933159318  0.
1.08273604429e-17 -0.00291914296686  0.
1.13345064233e-17 -0.00314564399186  0.
5.23636675443e-05 -0.00315399111574  0.
5.61222586643e-05 -0.00293625969298  0.
5.87258455087e-05 -0.00271569857935  0.
0.000104424354545 -0.00317828091753  0.
0.000112457238863 -0.00298572015142  0.
0.000118104176511 -0.00279107121296  0.
0.000155427463431 -0.00321673130092  0.
0.000168114322556 -0.00306379443352  0.
0.000178477465823 -0.00290840419749  0.
-0.00025018983622 -0.00296360747678  0.
-6.173638783e-05 -0.00249239970503  0.
-0.000121955122131 -0.00259404320717  0.
-0.000184688442516 -0.00274959801721  0.
-0.000186506420605 -0.00336499455138  0.
-0.000203999660274 -0.00326820142131  0.
-0.000220309412171 -0.00316903616279  0.
-0.000235342489947 -0.00306722575683  0.
-0.000140978795316 -0.00336764359139  0.
-9.43701217612e-05 -0.00336881087411  0.
-4.72677327756e-05 -0.00336918293009  0.
-5.87258455087e-05 -0.00271569857935  0.
-5.61222586642e-05 -0.00293625969298  0.
-5.23636675442e-05 -0.00315399111574  0.
-0.000118104176511 -0.00279107121296  0.
-0.000112457238863 -0.00298572015142  0.
-0.000104424354545 -0.00317828091753  0.
-0.000178477465823 -0.00290840419749  0.
-0.000168114322556 -0.00306379443352  0.
-0.000155427463431 -0.00321673130092  0.
-0.000176658937904 -0.00426712183159  0.
-0.000187723786924 -0.00359273401104  0.
-0.000186125352369 -0.00381907668747  0.
-0.000182336901703 -0.00404390653159  0.
-0.000315308889226 -0.00435904924058  0.
-0.000325397359832 -0.00396548408084  0.
-0.000319538313333 -0.00358207578911  0.
-0.000294967806782 -0.00323792036983  0.
-0.000286984798562 -0.00432744940304  0.
-0.000253901715969 -0.00430205072035  0.
-0.000216834474042 -0.00428218786223  0.
-0.000223055805251 -0.00402185362889  0.
-0.00026106297427 -0.00400122296652  0.
-0.000295406158195 -0.00398222866232  0.
-0.000223312426397 -0.00376274460271  0.
-0.000258540602203 -0.00370480350974  0.
-0.000290984264207 -0.00364444339884  0.
-0.00021698974798 -0.0035100062019  0.
-0.000245132996718 -0.00342429569624  0.
-0.000271555953224 -0.00333447803634  0.
-0.000292569347815 -0.00473479158194  0.
-0.000257194572288 -0.00506883669027  0.
-0.000212208168856 -0.00534462037472  0.
-0.000149719002595 -0.00492579874827  0.
-0.000160273835539 -0.00470818663162  0.
-0.000169271474021 -0.00448859281256  0.
-0.000267596846935 -0.00466070605023  0.
-0.000238294439823 -0.00459552726357  0.
-0.000205264251501 -0.00453852154712  0.
-0.000238167290545 -0.0049652919299  0.
-0.000215125864059 -0.00487128004978  0.
-0.000188951133331 -0.00478608896118  0.
-0.000200665241664 -0.00522863088036  0.
-0.000185826432381 -0.00512152704548  0.
-0.000168687362575 -0.00502103951299  0.
0.000315308889226 -0.00435904924058  0.
0.000325397359832 -0.00396548408084  0.
0.000319538313333 -0.00358207578911  0.
0.000294967806782 -0.00323792036983  0.
0.000176658937904 -0.00426712183159  0.
0.000187723786924 -0.00359273401104  0.
0.000186125352369 -0.00381907668747  0.
0.000182336901703 -0.00404390653159  0.
0.000286984798562 -0.00432744940304  0.
0.000253901715969 -0.00430205072035  0.
0.000216834474042 -0.00428218786223  0.
0.000295406158195 -0.00398222866232  0.
0.00026106297427 -0.00400122296652  0.
0.000223055805251 -0.00402185362889  0.
0.000290984264207 -0.00364444339884  0.
0.000258540602203 -0.00370480350974  0.
0.000223312426397 -0.00376274460271  0.
0.000271555953224 -0.00333447803634  0.
0.000245132996718 -0.00342429569624  0.
0.00021698974798 -0.0035100062019  0.
0.000292569347815 -0.00473479158194  0.
0.000257194572288 -0.00506883669027  0.
0.000212208168856 -0.00534462037472  0.
0.000149719002595 -0.00492579874827  0.
0.000160273835539 -0.00470818663162  0.
0.000169271474021 -0.00448859281256  0.
0.000200665241664 -0.00522863088036  0.
0.000185826432381 -0.00512152704548  0.
0.000168687362575 -0.00502103951299  0.
0.000238167290545 -0.0049652919299  0.
0.000215125864059 -0.00487128004978  0.
0.000188951133331 -0.00478608896118  0.
0.000267596846935 -0.00466070605023  0.
0.000238294439823 -0.00459552726357  0.
0.000205264251501 -0.00453852154712  0.
0.000142220103494 -0.00359200018886  0.
0.000141268368418 -0.00381489067378  0.
0.00013849731357 -0.00403633931918  0.
0.000134174961376 -0.0042562999793  0.
0.000128454876979 -0.0044747284278  0.
0.000121427862276 -0.00469157912387  0.
0.000113184446285 -0.00490680287618  0.
9.53734916651e-05 -0.00359124363159  0.
9.48901556753e-05 -0.00381196403766  0.
9.31026785859e-05 -0.00403115973808  0.
9.0195502432e-05 -0.00424893090265  0.
8.62875335901e-05 -0.00446533715195  0.
8.14519387945e-05 -0.00468043170672  0.
7.57460908125e-05 -0.00489427555029  0.
4.78328838276e-05 -0.00359063491275  0.
4.76382722867e-05 -0.00381018963252  0.
4.67676278794e-05 -0.00402813037717  0.
4.53084249904e-05 -0.00424466054226  0.
4.33244565719e-05 -0.00445993045908  0.
4.08545121039e-05 -0.00467407419164  0.
3.79518476362e-05 -0.00488724174649  0.
1.19641376916e-17 -0.0035904036438  0.
1.20646095982e-17 -0.00380959127982  0.
1.18129811557e-17 -0.00402713182944  0.
1.0949746238e-17 -0.00424326292055  0.
9.49272684546e-18 -0.00445816855823  0.
7.52961324313e-18 -0.00467201562881  0.
4.88184445709e-18 -0.00488496915044  0.
-4.78328838276e-05 -0.00359063491275  0.
-4.76382722866e-05 -0.00381018963252  0.
-4.67676278794e-05 -0.00402813037717  0.
-4.53084249904e-05 -0.00424466054226  0.
-4.33244565719e-05 -0.00445993045908  0.
-4.08545121039e-05 -0.00467407419164  0.
-3.79518476361e-05 -0.00488724174649  0.
-9.53734916651e-05 -0.00359124363159  0.
-9.48901556753e-05 -0.00381196403766  0.
-9.31026785859e-05 -0.00403115973808  0.
-9.0195502432e-05 -0.00424893090265  0.
-8.62875335901e-05 -0.00446533715195  0.
-8.14519387944e-05 -0.00468043170672  0.
-7.57460908125e-05 -0.00489427555029  0.
-0.000142220103494 -0.00359200018886  0.
-0.000141268368418 -0.00381489067378  0.
-0.00013849731357 -0.00403633931918  0.
-0.000134174961376 -0.0042562999793  0.
-0.000128454876979 -0.0044747284278  0.
-0.000121427862276 -0.00469157912387  0.
-0.000113184446285 -0.00490680287618  0.
0.000166019728715 -0.00298832420863  0.
2.39012274432e-18 -0.0024307982318  0.
0.000193657183105 -0.0028317571342  0.
0.0001828768272 -0.00265494653711  0.
0.000115979521764 -0.00249788714712  0.
8.38050365932e-18 -0.00247117889755  0.
6.75865382045e-18 -0.00247350146258  0.
4.5070276063e-18 -0.00245985196526  0.
0.00018722194389 -0.00308569821968  0.
0.000208977857703 -0.00313863406977  0.
0.000232081539065 -0.0031207658065  0.
0.000210759104092 -0.00288672744029  0.
0.000221876083197 -0.00290392756866  0.
0.000220318085259 -0.00286662264041  0.
0.000188702727203 -0.00268781177151  0.
0.000187154399235 -0.00269314531722  0.
0.000171314668428 -0.00266458928068  0.
0.000115084788786 -0.00252599928207  0.
0.000109127594878 -0.00253535072264  0.
9.44046091957e-05 -0.00252383784114  0.
-0.000166019728715 -0.00298832420863  0.
-0.000193657183105 -0.0028317571342  0.
-0.0001828768272 -0.00265494653711  0.
-0.000115979521764 -0.00249788714712  0.
-0.00018722194389 -0.00308569821968  0.
-0.000208977857703 -0.00313863406977  0.
-0.000232081539065 -0.0031207658065  0.
-0.000115084788786 -0.00252599928207  0.
-0.000109127594878 -0.00253535072264  0.
-9.44046091957e-05 -0.00252383784114  0.
-0.000188702727203 -0.00268781177151  0.
-0.000187154399235 -0.00269314531722  0.
-0.000171314668428 -0.00266458928068  0.
-0.000210759104092 -0.00288672744029  0.
-0.000221876083197 -0.00290392756866  0.
-0.000220318085259 -0.00286662264041  0.
-0.000101369904744 -0.00546949877913  0.
-0.000116649534973 -0.00543265044585  0.
-0.000132428533211 -0.00541582046747  0.
-0.000149180007775 -0.00543930544291  0.
-6.62582585239e-18 -0.00592028708791  0.
-0.000121766572182 -0.00559332857096  0.
-0.000119969756035 -0.00573809726731  0.
-7.83776002598e-05 -0.00586632851987  0.
-8.41948090314e-18 -0.0059263253692  0.
-7.81417426775e-18 -0.00591785918553  0.
-7.14473110435e-18 -0.00591590634353  0.
-6.31103193852e-05 -0.00588602577983  0.
-7.42693181319e-05 -0.00586977603847  0.
-7.83019472035e-05 -0.00586374737923  0.
-0.000114189235449 -0.00577688404728  0.
-0.0001251777339 -0.00574659549805  0.
-0.000125151291374 -0.00573548270151  0.
-0.000144645722151 -0.00562203757984  0.
-0.000144063328691 -0.00558546245279  0.
-0.00013446352548 -0.00557998577162  0.
0.000101369904744 -0.00546949877913  0.
0.000121766572182 -0.00559332857096  0.
0.000119969756035 -0.00573809726731  0.
7.83776002598e-05 -0.00586632851987  0.
0.000116649534973 -0.00543265044585  0.
0.000132428533211 -0.00541582046747  0.
0.000149180007775 -0.00543930544291  0.
0.000144645722151 -0.00562203757984  0.
0.000144063328691 -0.00558546245279  0.
0.00013446352548 -0.00557998577162  0.
0.000114189235449 -0.00577688404728  0.
0.0001251777339 -0.00574659549805  0.
0.000125151291374 -0.00573548270151  0.
6.31103193851e-05 -0.00588602577983  0.
7.42693181318e-05 -0.00586977603847  0.
7.83019472035e-05 -0.00586374737923  0.
1.32042578948e-05 -0.00440778734779  0.
0.000147952523724 -0.00333491551989  0.
0.000103475080552 -0.00369468411451  0.
4.63723573192e-05 -0.00405873832879  0.
0.000170040481339 -0.00437528018054  0.
8.82909355633e-05 -0.00438937942268  0.
4.05924536115e-05 -0.00440024382821  0.
7.17275979542e-05 -0.00405667267012  0.
0.000114282259749 -0.00404514265152  0.
0.000188113271643 -0.00401870044104  0.
0.000122898482403 -0.00371281477342  0.
0.000153769879862 -0.00371188239094  0.
0.000208994608716 -0.00367984629042  0.
0.000166034558729 -0.00338678762604  0.
0.000188955598612 -0.00340780228258  0.
0.000225504713991 -0.00337849078205  0.
-1.32042578948e-05 -0.00440778734779  0.
-0.000147952523724 -0.00333491551989  0.
-0.000103475080552 -0.00369468411451  0.
-4.63723573192e-05 -0.00405873832879  0.
-0.000170040481339 -0.00437528018054  0.
-8.82909355633e-05 -0.00438937942268  0.
-4.05924536115e-05 -0.00440024382821  0.
-0.000166034558729 -0.00338678762604  0.
-0.000188955598612 -0.00340780228258  0.
-0.000225504713991 -0.00337849078205  0.
-0.000122898482403 -0.00371281477342  0.
-0.000153769879862 -0.00371188239094  0.
-0.000208994608716 -0.00367984629042  0.
-7.17275979542e-05 -0.00405667267012  0.
-0.000114282259749 -0.00404514265152  0.
-0.000188113271643 -0.00401870044104  0.
-9.02975289343e-05 -0.00526548943025  0.
-6.12629005633e-05 -0.00501881061272  0.
-2.52504707406e-05 -0.00473032649566  0.
-4.66214118531e-05 -0.00472220804084  0.
-8.63713408557e-05 -0.00471602134732  0.
-0.000158404404864 -0.00471616757982  0.
-7.48853714604e-05 -0.00500482738897  0.
-0.00010023730626 -0.00499924711422  0.
-0.000151299379418 -0.0050112397816  0.
-0.000102985123232 -0.0052401285265  0.
-0.000119253466408 -0.005231154314  0.
-0.000148310845433 -0.00525010248207  0.
9.02975289343e-05 -0.00526548943025  0.
6.12629005633e-05 -0.00501881061272  0.
2.52504707406e-05 -0.00473032649566  0.
0.000102985123232 -0.0052401285265  0.
0.000119253466408 -0.005231154314  0.
0.000148310845433 -0.00525010248207  0.
7.48853714604e-05 -0.00500482738897  0.
0.00010023730626 -0.00499924711422  0.
0.000151299379418 -0.0050112397816  0.
4.6621411853e-05 -0.00472220804084  0.
8.63713408557e-05 -0.00471602134732  0.
0.000158404404864 -0.00471616757982  0.
0.0 0.0  0.
0.0 -0.00441927581457  0.
0.0 -0.00140828662884  0.
0.0 -0.00263037513926  0.
0.0 -0.00363034311983  0.
3.09879382797e-05 -0.000946600206143  0.
8.26303484945e-05 -0.00178761112688  0.
0.000127372554715 -0.00248723049518  0.
-9.83837274658e-06 -0.00441585791732  0.
-1.83702668917e-05 -0.00441467890476  0.
-2.12632309667e-05 -0.00441482047749  0.
3.97506127237e-06 -0.0037682933089  0.
2.48262474622e-06 -0.00389420907438  0.
4.16833148163e-06 -0.00400385384303  0.
2.47668251456e-05 -0.00297811793596  0.
4.0555412949e-05 -0.00328435294493  0.
5.66637234488e-05 -0.00353610546164  0.
4.05563962754e-05 -0.00202836572594  0.
7.67158412573e-05 -0.00257478302033  0.
0.000104276326193 -0.0030233102933  0.
0.0 0.0  0.
0.0 -0.00441927581457  0.
0.0 -0.00140828662884  0.
0.0 -0.00263037513926  0.
0.0 -0.00363034311983  0.
9.83837274658e-06 -0.00441585791732  0.
1.83702668917e-05 -0.00441467890476  0.
2.12632309667e-05 -0.00441482047749  0.
-3.09879382797e-05 -0.000946600206143  0.
-8.26303484945e-05 -0.00178761112688  0.
-0.000127372554715 -0.00248723049518  0.
-4.05563962754e-05 -0.00202836572594  0.
-7.67158412572e-05 -0.00257478302033  0.
-0.000104276326193 -0.0030233102933  0.
-2.47668251456e-05 -0.00297811793596  0.
-4.0555412949e-05 -0.00328435294493  0.
-5.66637234488e-05 -0.00353610546164  0.
-3.97506127237e-06 -0.0037682933089  0.
-2.48262474622e-06 -0.00389420907438  0.
-4.16833148162e-06 -0.00400385384303  0.
0.0 -0.00588584266177  0.
0.0 -0.00577235342141  0.
0.0 -0.00548768375808  0.
0.0 -0.0050348291127  0.
-3.24198089271e-05 -0.00584281041665  0.
-4.75744753429e-05 -0.00575781925189  0.
-6.69593719427e-05 -0.00562483999959  0.
3.39086659931e-06 -0.00494444319116  0.
7.02388288045e-06 -0.00486054772157  0.
5.30058888605e-06 -0.00478371084478  0.
-1.13395001699e-05 -0.00536255915942  0.
-1.92330353078e-05 -0.00523842840727  0.
-3.07175452577e-05 -0.00511469990115  0.
-2.19096216898e-05 -0.00566406889227  0.
-3.79742608087e-05 -0.00554025746111  0.
-5.69326009931e-05 -0.00539811156556  0.
0.0 -0.00588584266177  0.
3.24198089271e-05 -0.00584281041665  0.
4.75744753429e-05 -0.00575781925189  0.
6.69593719427e-05 -0.00562483999959  0.
0.0 -0.00577235342141  0.
0.0 -0.00548768375808  0.
0.0 -0.0050348291127  0.
-5.30058888605e-06 -0.00478371084478  0.
-7.02388288046e-06 -0.00486054772157  0.
-3.39086659931e-06 -0.00494444319116  0.
3.07175452577e-05 -0.00511469990115  0.
1.92330353078e-05 -0.00523842840727  0.
1.13395001699e-05 -0.00536255915942  0.
5.6932600993e-05 -0.00539811156556  0.
3.79742608087e-05 -0.00554025746111  0.
2.19096216898e-05 -0.00566406889227  0.
0.0 0.0  0.
0.0 0.0  0.
0.0 0.0  0.
0.0 0.0  0.
-1.18226637266e-18 -0.000830950560199  0.
-1.43541097013e-18 -0.00153049436571  0.
-5.60857068773e-19 -0.00208268370325  0.
6.4559308876e-05 -0.000921423283599  0.
0.000117452000995 -0.00172549631392  0.
0.000155904195026 -0.00237737174084  0.
7.55723153094e-05 -0.000888712687064  0.
0.000120013185167 -0.00164727265702  0.
0.000150509276454 -0.00225283973589  0.
5.44163853755e-05 -0.000849585598094  0.
7.99070026608e-05 -0.00156701608492  0.
9.76436288532e-05 -0.00213438365765  0.
0.0 0.0  0.
0.0 0.0  0.
0.0 0.0  0.
-5.44163853755e-05 -0.000849585598094  0.
-7.99070026608e-05 -0.00156701608492  0.
-9.76436288532e-05 -0.00213438365765  0.
-7.55723153094e-05 -0.000888712687064  0.
-0.000120013185167 -0.00164727265702  0.
-0.000150509276454 -0.00225283973589  0.
-6.4559308876e-05 -0.000921423283599  0.
-0.000117452000995 -0.00172549631392  0.
-0.000155904195026 -0.00237737174084  0.
3.92277526043e-19 -0.00617266070697  0.
-6.85033479761e-05 -0.00591214394233  0.
-0.000111769550753 -0.00600182969702  0.
-9.04319028361e-05 -0.00611673162638  0.
-7.31054922921e-19 -0.00616564194498  0.
-2.20520771715e-18 -0.00609842903142  0.
-3.91355677436e-18 -0.00600113200626  0.
-6.18264657441e-05 -0.00595405669286  0.
-4.90624934562e-05 -0.00605297107472  0.
-4.99103873551e-05 -0.00611550363194  0.
-9.07244377444e-05 -0.00584314567283  0.
-7.03148923592e-05 -0.00594753889157  0.
-7.10673251973e-05 -0.00600479645247  0.
-8.65541743506e-05 -0.00572264493013  0.
-6.46718433215e-05 -0.00583768332008  0.
-6.10628835561e-05 -0.00590177309467  0.
6.85033479761e-05 -0.00591214394233  0.
0.000111769550753 -0.00600182969702  0.
9.04319028361e-05 -0.00611673162638  0.
4.99103873551e-05 -0.00611550363194  0.
4.90624934562e-05 -0.00605297107472  0.
6.18264657441e-05 -0.00595405669286  0.
7.10673251973e-05 -0.00600479645247  0.
7.03148923592e-05 -0.00594753889157  0.
9.07244377444e-05 -0.00584314567283  0.
6.10628835561e-05 -0.00590177309467  0.
6.46718433215e-05 -0.00583768332008  0.
8.65541743505e-05 -0.00572264493013  0.
</DataArray>
<DataArray type="Float64" Name="stresses" NumberOfComponents="4" format="ascii" >
-36975.9049183 -3063.66937579 -12011.8722882 6.11180439591e-10  
-75198.8319662 -104806.182673 -59433.1643108 58643.9314866  
-42730.1624172 -8407.34065888 -15341.2509228 13012.674976  
-55749.8943529 -28697.2517426 -25334.1438287 30635.3037038  
-69577.0118984 -64344.2985451 -41093.3709329 48732.376955  
0.0 0.0 0.0 0.0  
0.0 0.0 0.0 0.0  
0.0 0.0 0.0 0.0  
0.0 0.0 0.0 0.0  
0.0 0.0 0.0 0.0  
0.0 0.0 0.0 0.0  
0.0 0.0 0.0 0.0  
0.0 0.0 0.0 0.0  
0.0 0.0 0.0 0.0  
0.0 0.0 0.0 0.0  
0.0 0.0 0.0 0.0  
0.0 0.0 0.0 0.0  
0.0 0.0 0.0 0.0  
0.0 0.0 0.0 0.0  
0.0 0.0 0.0 0.0  
0.0 0.0 0.0 0.0  
0.0 0.0 0.0 0.0  
0.0 0.0 0.0 0.0  
0.0 0.0 0.0 0.0  
0.0 0.0 0.0 0.0  
-75198.8319662 -104806.182673 -59433.1643108 -58643.9314866  
-42730.1624172 -8407.34065888 -15341.2509228 -13012.674976  
-55749.8943529 -28697.2517426 -25334.1438287 -30635.3037038  
-69577.0118984 -64344.2985451 -41093.3709329 -48732.376955  
0.0 0.0 0.0 0.0  
0.0 0.0 0.0 0.0  
0.0 0.0 0.0 0.0  
0.0 0.0 0.0 0.0  
0.0 0.0 0.0 0.0  
0.0 0.0 0.0 0.0  
0.0 0.0 0.0 0.0  
0.0 0.0 0.0 0.0  
0.0 0.0 0.0 0.0  
0.0 0.0 0.0 0.0  
0.0 0.0 0.0 0.0  
0.0 0.0 0.0 0.0  
0.0 0.0 0.0 0.0  
0.0 0.0 0.0 0.0  
0.0 0.0 0.0 0.0  
0.0 0.0 0.0 0.0  
0.0 0.0 0.0 0.0  
0.0 0.0 0.0 0.0  
0.0 0.0 0.0 0.0  
0.0 0.0 0.0 0.0  
0.0 0.0 0.0 0.0  
-91983.5998401 -129276.020775 -76599.3836086 68955.1151037  
0.0 0.0 0.0 0.0  
0.0 0.0 0.0 0.0  
0.0 0.0 0.0 0.0  
-63062.2138967 -10666.1161476 -22118.4990133 1.58252078108e-10  
-69185.7265093 -17933.7994864 -26135.8577987 18554.2071276  
-83370.5959015 -43553.1337963 -38645.6915015 40500.0853051  
-93286.2539768 -84559.5608942 -58198.0014788 58397.4820263  
0.0 0.0 0.0 0.0  
0.0 0.0 0.0 0.0  
0.0 0.0 0.0 0.0  
0.0 0.0 0.0 0.0  
0.0 0.0 0.0 0.0  
0.0 0.0 0.0 0.0  
0.0 0.0 0.0 0.0  
0.0 0.0 0.0 0.0  
0.0 0.0 0.0 0.0  
0.0 0.0 0.0 0.0  
0.0 0.0 0.0 0.0  
0.0 0.0 0.0 0.0  
-91983.5998401 -129276.020775 -76599.3836086 -68955.1151037  
-69185.7265092 -17933.7994864 -26135.8577987 -18554.2071276  
-83370.5959014 -43553.1337963 -38645.6915014 -40500.0853051  
-93286.2539768 -84559.5608942 -58198.0014788 -58397.4820263  
0.0 0.0 0.0 0.0  
0.0 0.0 0.0 0.0  
0.0 0.0 0.0 0.0  
0.0 0.0 0.0 0.0  
0.0 0.0 0.0 0.0  
0.0 0.0 0.0 0.0  
0.0 0.0 0.0 0.0  
0.0 0.0 0.0 0.0  
0.0 0.0 0.0 0.0  
0.0 0.0 0.0 0.0  
0.0 0.0 0.0 0.0  
0.0 0.0 0.0 0.0  
0.0 0.0 0.0 0.0  
0.0 0.0 0.0 0.0  
0.0 0.0 0.0 0.0  
0.0 0.0 0.0 0.0  
0.0 0.0 0.0 0.0  
0.0 0.0 0.0 0.0  
0.0 0.0 0.0 0.0  
0.0 0.0 0.0 0.0  
-52137.8991244 -274350.581573 -120718.836315 -562.889107076  
-60825.1101225 -264922.384927 -120350.601116 -41404.8900676  
-75512.6842681 -226372.502974 -110546.182105 -67593.086087  
-83324.4863316 -171835.789403 -91584.8411661 -74726.1706423  
0.0 0.0 0.0 0.0  
0.0 0.0 0.0 0.0  
0.0 0.0 0.0 0.0  
0.0 0.0 0.0 0.0  
0.0 0.0 0.0 0.0  
0.0 0.0 0.0 0.0  
0.0 0.0 0.0 0.0  
0.0 0.0 0.0 0.0  
0.0 0.0 0.0 0.0  
0.0 0.0 0.0 0.0  
0.0 0.0 0.0 0.0  
0.0 0.0 0.0 0.0  
-57935.3237412 -250696.325696 -113286.822386 38439.9642184  
-69210.0907986 -203400.242911 -98359.0400088 60881.9895119  
-73781.9667862 -147407.880991 -77256.4426956 65203.8156747  
0.0 0.0 0.0 0.0  
0.0 0.0 0.0 0.0  
0.0 0.0 0.0 0.0  
0.0 0.0 0.0 0.0  
0.0 0.0 0.0 0.0  
0.0 0.0 0.0 0.0  
0.0 0.0 0.0 0.0  
0.0 0.0 0.0 0.0  
0.0 0.0 0.0 0.0  
0.0 0.0 0.0 0.0  
0.0 0.0 0.0 0.0  
0.0 0.0 0.0 0.0  
-52137.8991244 -274350.581573 -120718.836315 562.889107077  
-60825.1101225 -264922.384927 -120350.601116 41404.8900676  
-75512.6842681 -226372.502974 -110546.182105 67593.086087  
-83324.4863316 -171835.789403 -91584.8411661 74726.1706423  
0.0 0.0 0.0 0.0  
0.0 0.0 0.0 0.0  
0.0 0.0 0.0 0.0  
0.0 0.0 0.0 0.0  
0.0 0.0 0.0 0.0  
0.0 0.0 0.0 0.0  
0.0 0.0 0.0 0.0  
0.0 0.0 0.0 0.0  
0.0 0.0 0.0 0.0  
0.0 0.0 0.0 0.0  
0.0 0.0 0.0 0.0  
0.0 0.0 0.0 0.0  
0.0 0.0 0.0 0.0  
0.0 0.0 0.0 0.0  
0.0 0.0 0.0 0.0  
0.0 0.0 0.0 0.0  
-57935.3237412 -250696.325696 -113286.822386 -38439.9642184  
-69210.0907986 -203400.242911 -98359.0400088 -60881.9895119  
-73781.9667862 -147407.880991 -77256.4426956 -65203.8156747  
0.0 0.0 0.0 0.0  
0.0 0.0 0.0 0.0  
0.0 0.0 0.0 0.0  
0.0 0.0 0.0 0.0  
0.0 0.0 0.0 0.0  
0.0 0.0 0.0 0.0  
0.0 0.0 0.0 0.0  
0.0 0.0 0.0 0.0  
0.0 0.0 0.0 0.0  
0.0 0.0 0.0 0.0  
0.0 0.0 0.0 0.0  
0.0 0.0 0.0 0.0  
0.0 0.0 0.0 0.0  
0.0 0.0 0.0 0.0  
0.0 0.0 0.0 0.0  
0.0 0.0 0.0 0.0  
0.0 0.0 0.0 0.0  
0.0 0.0 0.0 0.0  
0.0 0.0 0.0 0.0  
0.0 0.0 0.0 0.0  
0.0 0.0 0.0 0.0  
0.0 0.0 0.0 0.0  
0.0 0.0 0.0 0.0  
0.0 0.0 0.0 0.0  
0.0 0.0 0.0 0.0  
0.0 0.0 0.0 0.0  
0.0 0.0 0.0 0.0  
0.0 0.0 0.0 0.0  
0.0 0.0 0.0 0.0  
0.0 0.0 0.0 0.0  
0.0 0.0 0.0 0.0  
0.0 0.0 0.0 0.0  
0.0 0.0 0.0 0.0  
0.0 0.0 0.0 0.0  
0.0 0.0 0.0 0.0  
0.0 0.0 0.0 0.0  
0.0 0.0 0.0 0.0  
0.0 0.0 0.0 0.0  
0.0 0.0 0.0 0.0  
0.0 0.0 0.0 0.0  
0.0 0.0 0.0 0.0  
0.0 0.0 0.0 0.0  
0.0 0.0 0.0 0.0  
0.0 0.0 0.0 0.0  
0.0 0.0 0.0 0.0  
0.0 0.0 0.0 0.0  
0.0 0.0 0.0 0.0  
0.0 0.0 0.0 0.0  
0.0 0.0 0.0 0.0  
0.0 0.0 0.0 0.0  
0.0 0.0 0.0 0.0  
0.0 0.0 0.0 0.0  
0.0 0.0 0.0 0.0  
0.0 0.0 0.0 0.0  
0.0 0.0 0.0 0.0  
0.0 0.0 0.0 0.0  
0.0 0.0 0.0 0.0  
0.0 0.0 0.0 0.0  
0.0 0.0 0.0 0.0  
0.0 0.0 0.0 0.0  
0.0 0.0 0.0 0.0  
-68332.0967104 -172234.520885 -78101.3152487 18225.6801461  
-90686.6926802 -90758.7853622 -55673.3534057 -1.72349245986e-10  
-66753.4972325 -153699.439513 -69224.939299 26813.7496953  
-73784.0447239 -130437.138293 -62079.6222727 30872.2781987  
-85361.6128132 -103164.238645 -57778.2007103 21395.4596427  
-79770.8913815 -24752.6008569 -31357.0476715 1.7462298274e-10  
-83127.7952479 -41878.6509674 -37501.9338646 5.44787326362e-10  
-83628.5753541 -59237.1941037 -42916.2321606 2.53294274444e-10  
-61443.9564271 -161714.889568 -72728.2414723 26450.5435994  
-59174.2577848 -151043.042227 -69203.9436731 36889.6871973  
-59939.5556211 -128421.130507 -63416.6627766 53648.1547996  
-58226.1362368 -132137.693964 -59042.5727736 34957.6662695  
-57312.1063345 -114892.859588 -53722.4000457 43099.7740544  
-63860.0515518 -90179.8820435 -48890.2445284 51980.2470676  
-66932.8177605 -101987.499115 -50432.7787623 36986.0703153  
-68300.2381511 -82819.8520974 -45176.5018924 41425.5579691  
-73475.8107138 -58254.5375736 -39499.6312821 42812.6605093  
-78409.9616952 -72026.5381535 -45178.8753717 23990.7304699  
-78735.1674906 -53628.4122858 -39709.0739329 25122.2895378  
-78282.0193897 -33667.5419403 -33584.868399 23337.4906921  
-68332.0967104 -172234.520885 -78101.3152487 -18225.6801461  
-66753.4972325 -153699.439513 -69224.939299 -26813.7496953  
-73784.0447239 -130437.138293 -62079.6222727 -30872.2781987  
-85361.6128132 -103164.238645 -57778.2007103 -21395.4596427  
-61443.9564271 -161714.889568 -72728.2414723 -26450.5435994  
-59174.2577848 -151043.042227 -69203.9436731 -36889.6871973  
-59939.5556212 -128421.130507 -63416.6627766 -53648.1547996  
-78409.9616952 -72026.5381535 -45178.8753717 -23990.7304699  
-78735.1674906 -53628.4122858 -39709.0739329 -25122.2895378  
-78282.0193897 -33667.5419403 -33584.868399 -23337.4906921  
-66932.8177605 -101987.499115 -50432.7787623 -36986.0703153  
-68300.2381511 -82819.8520974 -45176.5018924 -41425.5579691  
-73475.8107138 -58254.5375736 -39499.6312821 -42812.6605093  
-58226.1362368 -132137.693964 -59042.5727736 -34957.6662695  
-57312.1063345 -114892.859588 -53722.4000457 -43099.7740544  
-63860.0515518 -90179.8820435 -48890.2445284 -51980.2470676  
-31280.1158809 -100104.355769 -39415.3414949 18713.9491732  
-31759.4017634 -105579.405045 -41201.6420424 24372.2217037  
-33160.9838397 -106213.24401 -41973.998372 32791.4068622  
-39632.2492412 -96560.5925939 -42596.579757 46033.3489775  
-47256.0417372 -31556.9705671 -23643.9036913 2.57614374277e-10  
-29706.8946072 -78820.954584 -32558.3547574 22421.3300192  
-35288.1873437 -60740.1972724 -28808.5153849 24434.0631105  
-43323.6761606 -40930.5271345 -25276.2609885 16986.2373381  
-50949.4264606 -10808.3788967 -18527.3416072 4.24279278377e-10  
-51360.956053 -16307.4366702 -20300.517817 4.84305928694e-10  
-49186.0509187 -22442.9864655 -21488.7112152 4.19731804868e-10  
-50465.6863031 -17612.9537907 -20423.5920281 17424.1240843  
-48212.9917145 -25385.8183949 -22079.6430328 19301.7405932  
-45351.0598065 -32383.2089629 -23320.2806308 18703.9053282  
-47911.3350751 -36861.1425109 -25431.7432758 32194.316364  
-40915.0768549 -47926.9934317 -26652.621086 31604.4664658  
-37231.721065 -54869.8664401 -27630.4762515 28508.8649501  
-40963.929012 -63207.393332 -31005.0898354 42278.2493001  
-32728.4586077 -73651.7974729 -31934.1025902 34513.2646033  
-30683.6266859 -78161.0276661 -32653.3963056 28277.8633534  
-31280.1158809 -100104.355769 -39415.3414949 -18713.9491732  
-29706.8946072 -78820.954584 -32558.3547574 -22421.3300192  
-35288.1873437 -60740.1972724 -28808.5153849 -24434.0631105  
-43323.6761606 -40930.5271345 -25276.2609885 -16986.2373381  
-31759.4017634 -105579.405045 -41201.6420424 -24372.2217037  
-33160.9838397 -106213.24401 -41973.998372 -32791.4068622  
-39632.2492412 -96560.5925939 -42596.579757 -46033.3489775  
-40963.929012 -63207.393332 -31005.0898354 -42278.2493001  
-32728.4586077 -73651.7974729 -31934.1025902 -34513.2646033  
-30683.6266859 -78161.0276661 -32653.3963056 -28277.8633534  
-47911.3350751 -36861.1425109 -25431.7432758 -32194.316364  
-40915.0768549 -47926.9934317 -26652.621086 -31604.4664658  
-37231.721065 -54869.8664401 -27630.4762515 -28508.8649501  
-50465.6863031 -17612.9537907 -20423.5920281 -17424.1240843  
-48212.9917145 -25385.8183949 -22079.6430328 -19301.7405932  
-45351.0598065 -32383.2089629 -23320.2806308 -18703.9053282  
-57598.3622273 -162362.730993 -69386.9489226 174.692385125  
-59372.1914886 -166734.235399 -73433.9577529 15591.7144321  
-57467.2863532 -168100.689846 -73493.8622451 11690.1243389  
-58672.0947765 -167779.384667 -73030.2668391 6123.96028072  
-18127.314697 -195330.666409 -76367.7899827 1395.96765574  
-37811.1676194 -179609.942916 -74851.3470068 1432.69958256  
-48022.9934053 -168708.476285 -71700.4501172 1126.33688141  
-49927.418527 -171563.769217 -73955.8692914 12326.2899033  
-41433.9564807 -179526.146236 -76251.0742417 18026.7658017  
-23537.781406 -190290.799097 -76449.0967768 28212.5044052  
-51259.3135484 -167573.246449 -72935.0523392 20079.0731168  
-45841.9985979 -169505.388725 -73639.5486311 29128.510168  
-33780.5646594 -169384.893763 -71834.1718979 46192.807483  
-53168.4855491 -161105.681177 -70582.7509589 24121.701074  
-49721.3208343 -156528.533008 -69215.0636741 34252.6844036  
-44179.0807011 -144536.384969 -65334.2814255 53300.3465115  
-57598.3622273 -162362.730993 -69386.9489226 -174.692385125  
-59372.1914886 -166734.235399 -73433.9577529 -15591.7144321  
-57467.2863532 -168100.689846 -73493.8622451 -11690.1243389  
-58672.0947765 -167779.384667 -73030.2668391 -6123.96028073  
-18127.314697 -195330.666409 -76367.7899827 -1395.96765574  
-37811.1676194 -179609.942916 -74851.3470068 -1432.69958256  
-48022.9934053 -168708.476285 -71700.4501172 -1126.33688141  
-53168.4855491 -161105.681177 -70582.7509589 -24121.701074  
-49721.3208343 -156528.533008 -69215.0636741 -34252.6844036  
-44179.0807011 -144536.384969 -65334.2814255 -53300.3465115  
-51259.3135484 -167573.246449 -72935.0523392 -20079.0731168  
-45841.998598 -169505.388725 -73639.5486311 -29128.510168  
-33780.5646594 -169384.893763 -71834.1718979 -46192.807483  
-49927.418527 -171563.769217 -73955.8692914 -12326.2899033  
-41433.9564807 -179526.146236 -76251.0742417 -18026.7658017  
-23537.781406 -190290.799097 -76449.0967767 -28212.5044052  
-31763.8146609 -111559.74738 -43020.0549547 15143.1720534  
-39727.1579632 -132366.298562 -52027.6939264 11385.3486122  
-49996.6800736 -150080.350444 -61677.7566153 5755.07871716  
-44098.3583766 -156674.417513 -65157.6339283 10199.9329004  
-36691.3720376 -166648.183965 -68935.0949237 15015.8617226  
-21052.8396705 -179567.64675 -70990.5410264 24626.7967586  
-37929.0556544 -138080.092108 -55308.406507 17939.9171143  
-35697.6935642 -144755.530872 -59306.2545328 25478.3626496  
-27842.5457197 -149788.041251 -61303.1894717 40700.6226611  
-31230.7303022 -116711.149204 -45077.6002948 21623.3215163  
-32394.7275624 -121092.860675 -48087.1876087 30039.2043351  
-32934.0870069 -118512.479165 -50134.5481564 45850.2952817  
-31763.8146609 -111559.74738 -43020.0549547 -15143.1720534  
-39727.1579632 -132366.298562 -52027.6939264 -11385.3486122  
-49996.6800736 -150080.350444 -61677.7566153 -5755.07871716  
-31230.7303022 -116711.149204 -45077.6002948 -21623.3215163  
-32394.7275624 -121092.860675 -48087.1876087 -30039.2043351  
-32934.0870069 -118512.479165 -50134.5481564 -45850.2952817  
-37929.0556544 -138080.092108 -55308.406507 -17939.9171143  
-35697.6935642 -144755.530872 -59306.2545328 -25478.3626496  
-27842.5457197 -149788.041251 -61303.1894717 -40700.6226611  
-44098.3583766 -156674.417513 -65157.6339283 -10199.9329004  
-36691.3720376 -166648.183965 -68935.0949237 -15015.8617226  
-21052.8396705 -179567.64675 -70990.5410264 -24626.7967586  
-114839.359458 -232129.283164 -117149.595418 1151.73135098  
-56660.1601467 -127161.720985 -55146.5643395 269.176055189  
-99244.5308068 -214553.091848 -105232.34176 2419.81430234  
-83735.8967773 -187580.690233 -87361.4054172 1521.96644143  
-68996.8778841 -157924.682396 -69581.6950113 823.978652837  
-103580.27795 -218636.285643 -108033.226838 955.948938099  
-88667.8884182 -199303.078117 -95078.8304525 3437.66167177  
-74634.8346704 -179977.855246 -82439.1997885 8418.35967191  
-56728.1274279 -127655.305821 -55315.0299747 -43.7858100946  
-57170.8729276 -130469.252672 -56292.0376799 -320.396920917  
-54855.7555307 -137322.195244 -57327.7510351 -199.522116134  
-65885.2427209 -153054.995593 -66575.6112145 -124.400238331  
-63643.9880782 -150447.970778 -64746.9496348 -400.148030951  
-58546.8318028 -151354.330847 -63740.9550212 986.40481872  
-76699.5590901 -177626.933092 -80685.7939167 451.89581047  
-69777.2345743 -168782.557803 -74748.0373666 1037.44543833  
-61235.0735077 -162477.868332 -70293.3972402 3898.23631704  
-90305.0249125 -200920.358789 -96159.2694083 1782.02257937  
-79490.0232893 -186125.215712 -86264.2897741 3222.3693474  
-66807.8162786 -171756.478534 -76575.4297193 6892.89590695  
-114839.359458 -232129.283164 -117149.595418 -1151.73135098  
-56660.1601467 -127161.720985 -55146.5643395 -269.176055189  
-99244.5308068 -214553.091848 -105232.34176 -2419.81430234  
-83735.8967773 -187580.690233 -87361.4054172 -1521.96644143  
-68996.8778841 -157924.682396 -69581.6950113 -823.978652837  
-56728.1274279 -127655.305821 -55315.0299747 43.7858100945  
-57170.8729276 -130469.252672 -56292.0376799 320.396920917  
-54855.7555307 -137322.195244 -57327.7510351 199.522116133  
-103580.27795 -218636.285643 -108033.226838 -955.948938099  
-88667.8884182 -199303.078117 -95078.8304525 -3437.66167177  
-74634.8346704 -179977.855246 -82439.1997885 -8418.35967191  
-90305.0249125 -200920.358789 -96159.2694083 -1782.02257937  
-79490.0232893 -186125.215712 -86264.2897741 -3222.3693474  
-66807.8162786 -171756.478534 -76575.4297193 -6892.89590695  
-76699.5590901 -177626.933092 -80685.7939167 -451.89581047  
-69777.2345743 -168782.557803 -74748.0373666 -1037.44543833  
-61235.0735077 -162477.868332 -70293.3972402 -3898.23631704  
-65885.2427209 -153054.995593 -66575.6112145 124.400238331  
-63643.9880782 -150447.970778 -64746.9496348 400.148030951  
-58546.8318028 -151354.330847 -63740.9550212 -986.40481872  
2860.64387656 -13449.5268286 -3176.66488561 1301.43534472  
-9272.82216393 -32782.6994073 -12616.6564714 -749.395249054  
-25217.1109043 -64583.3708108 -26940.1445145 -192.657676128  
-41949.4306368 -96113.0976342 -41418.7584813 -97.9700596444  
-7008.00304597 -30563.309079 -11271.3936375 4420.07263509  
-17262.4139546 -51509.7230574 -20631.6411036 6699.39455455  
-23914.4975069 -72572.0158684 -28945.9540126 10277.1086996  
-43983.7731444 -101873.961122 -43757.3202798 -66.2419599235  
-46343.0314058 -109985.411264 -46898.5328009 299.04026669  
-46488.416622 -121512.954933 -50289.7005767 1272.28075549  
-29132.6989667 -75407.2932429 -31361.9976629 674.745191335  
-33374.3366909 -88445.5433725 -36545.964019 1760.83796803  
-35562.3960777 -104097.304259 -41897.9101012 4000.56282206  
-15155.7771265 -48253.3590339 -19022.7408481 1404.13629181  
-22102.460218 -65878.3774222 -26394.251292 3512.27551968  
-26862.5667716 -85117.2905721 -33593.9572031 6948.89972469  
2860.64387656 -13449.5268286 -3176.66488561 -1301.43534472  
-7008.00304597 -30563.309079 -11271.3936375 -4420.07263509  
-17262.4139546 -51509.7230574 -20631.6411036 -6699.39455455  
-23914.4975069 -72572.0158684 -28945.9540126 -10277.1086996  
-9272.82216393 -32782.6994073 -12616.6564714 749.395249054  
-25217.1109043 -64583.3708108 -26940.1445145 192.657676128  
-41949.4306368 -96113.0976342 -41418.7584813 97.9700596442  
-46488.416622 -121512.954933 -50289.7005767 -1272.28075549  
-46343.0314058 -109985.411264 -46898.5328009 -299.04026669  
-43983.7731445 -101873.961122 -43757.3202798 66.2419599235  
-35562.3960777 -104097.304259 -41897.9101012 -4000.56282206  
-33374.3366909 -88445.5433725 -36545.964019 -1760.83796803  
-29132.6989667 -75407.2932429 -31361.9976629 -674.745191335  
-26862.5667716 -85117.2905721 -33593.9572031 -6948.89972469  
-22102.460218 -65878.3774222 -26394.251292 -3512.27551968  
-15155.7771265 -48253.3590339 -19022.7408481 -1404.13629181  
-104873.476946 -204940.84898 -105059.668148 -8.55493453855e-11  
-115594.380488 -229595.977529 -115527.740897 5004.0505086  
-111792.002252 -220500.695391 -111809.160992 5786.10919954  
-107099.010661 -209968.064103 -107228.415736 4146.9864677  
-107758.14728 -194743.471898 -101227.144087 -1.20792265079e-10  
-98858.3101376 -166356.041456 -86780.0505269 -1.61890056916e-10  
-88993.2133078 -129570.800799 -69543.6391786 -2.56932253251e-10  
-105064.217704 -218065.559725 -107730.105438 5204.39028999  
-90564.62055 -195924.91669 -93412.9891339 7613.10704819  
-75581.9792067 -171211.3367 -77952.3397671 13671.7546171  
-105646.046427 -209846.362127 -105055.105205 6913.00541899  
-93452.7194506 -185081.490146 -90649.6673885 9502.36090448  
-80105.9209619 -154853.028969 -74349.8605854 15790.4329658  
-106993.535305 -199679.347657 -102466.324692 5365.58514448  
-97102.6786675 -172399.868456 -88044.3896328 7161.34521603  
-86048.8294641 -137711.324555 -71076.6201203 11651.0425212  
-115594.380488 -229595.977529 -115527.740897 -5004.0505086  
-111792.002252 -220500.695391 -111809.160992 -5786.10919954  
-107099.010661 -209968.064103 -107228.415736 -4146.9864677  
-106993.535305 -199679.347657 -102466.324692 -5365.58514448  
-97102.6786675 -172399.868456 -88044.3896328 -7161.34521603  
-86048.8294641 -137711.324555 -71076.6201203 -11651.0425212  
-105646.046427 -209846.362127 -105055.105205 -6913.00541899  
-93452.7194506 -185081.490146 -90649.6673885 -9502.36090448  
-80105.9209619 -154853.028969 -74349.8605854 -15790.4329658  
-105064.217704 -218065.559725 -107730.105438 -5204.39028999  
-90564.62055 -195924.91669 -93412.9891339 -7613.10704819  
-75581.9792067 -171211.3367 -77952.3397671 -13671.7546171  
-17192.6452555 -8910.86158925 -7831.05205343 -1.65982783074e-11  
5712.76992403 -6084.89996654 -111.639012755 162.000517819  
-1509.00702059 -7436.23211652 -2683.57174113 1784.5026835  
-11874.6742841 -8476.58453146 -6105.37764466 1968.69175665  
-15082.7308189 -14621.3544765 -8911.22558865 3.17186277243e-11  
-22464.6579324 -27705.7257867 -15051.1151157 3.21733750752e-11  
-31684.5824202 -33155.1445003 -19451.9180762 1.82353687705e-10  
-29386.7100098 -38732.396403 -20435.7319238 10125.4661202  
-20754.1394179 -30735.0439288 -15446.755004 6860.3209817  
-13188.4256224 -16177.081005 -8809.65198822 3881.757967  
-24903.3073428 -50148.6466111 -22515.5861862 14028.8989893  
-17489.1844828 -36932.5971229 -16326.5344817 9218.09257427  
-9160.3759384 -19214.9081317 -8512.58522104 5093.64484774  
-22071.4981328 -59523.9188916 -24478.6251073 12125.794909  
-15340.2616147 -41621.0070397 -17088.3805963 7493.91421874  
-5545.02191023 -21086.0124823 -7989.31031777 3848.66761117  
5712.76992403 -6084.89996655 -111.639012756 -162.000517819  
-1509.00702059 -7436.23211652 -2683.57174113 -1784.5026835  
-11874.6742841 -8476.58453146 -6105.37764466 -1968.69175665  
-13188.4256224 -16177.081005 -8809.65198822 -3881.757967  
-20754.1394179 -30735.0439288 -15446.755004 -6860.3209817  
-29386.7100098 -38732.396403 -20435.7319238 -10125.4661202  
-9160.3759384 -19214.9081317 -8512.58522104 -5093.64484774  
-17489.1844828 -36932.5971229 -16326.5344817 -9218.09257427  
-24903.3073428 -50148.6466111 -22515.5861862 -14028.8989893  
-5545.02191023 -21086.0124823 -7989.31031777 -3848.66761117  
-15340.2616147 -41621.0070397 -17088.3805963 -7493.91421874  
-22071.4981328 -59523.9188916 -24478.6251073 -12125.794909  
</DataArray>
<DataArray type="Float64" Name="equivalent_strain" NumberOfComponents="1" format="ascii" >
0.0  
8.3826292236e-05  
0.0  
0.0  
1.3343165353e-05  
0.0  
0.0  
0.0  
0.0  
0.0  
0.0  
0.0  
0.0  
0.0  
0.0  
0.0  
0.0  
0.0  
0.0  
0.0  
0.0  
0.0  
0.0  
0.0  
0.0  
8.3826292236e-05  
0.0  
0.0  
1.3343165353e-05  
0.0  
0.0  
0.0  
0.0  
0.0  
0.0  
0.0  
0.0  
0.0  
0.0  
0.0  
0.0  
0.0  
0.0  
0.0  
0.0  
0.0  
0.0  
0.0  
0.0  
0.0  
0.000179955587627  
0.0  
0.0  
0.0  
0.0  
0.0  
8.21669747415e-06  
7.14904724861e-05  
0.0  
0.0  
0.0  
0.0  
0.0  
0.0  
0.0  
0.0  
0.0  
0.0  
0.0  
0.0  
0.000179955587627  
0.0  
8.21669747415e-06  
7.14904724861e-05  
0.0  
0.0  
0.0  
0.0  
0.0  
0.0  
0.0  
0.0  
0.0  
0.0  
0.0  
0.0  
0.0  
0.0  
0.0  
0.0  
0.0  
0.0  
0.0  
0.0  
0.000493780397037  
0.000487153262619  
0.000417717537728  
0.000303530096455  
0.0  
0.0  
0.0  
0.0  
0.0  
0.0  
0.0  
0.0  
0.0  
0.0  
0.0  
0.0  
0.00043405678995  
0.000327302640047  
0.000199977334442  
0.0  
0.0  
0.0  
0.0  
0.0  
0.0  
0.0  
0.0  
0.0  
0.0  
0.0  
0.0  
0.000493780397037  
0.000487153262619  
0.000417717537728  
0.000303530096454  
0.0  
0.0  
0.0  
0.0  
0.0  
0.0  
0.0  
0.0  
0.0  
0.0  
0.0  
0.0  
0.0  
0.0  
0.0  
0.0  
0.00043405678995  
0.000327302640047  
0.000199977334442  
0.0  
0.0  
0.0  
0.0  
0.0  
0.0  
0.0  
0.0  
0.0  
0.0  
0.0  
0.0  
0.0  
0.0  
0.0  
0.0  
0.0  
0.0  
0.0  
0.0  
0.0  
0.0  
0.0  
0.0  
0.0  
0.0  
0.0  
0.0  
0.0  
0.0  
0.0  
0.0  
0.0  
0.0  
0.0  
0.0  
0.0  
0.0  
0.0  
0.0  
0.0  
0.0  
0.0  
0.0  
0.0  
0.0  
0.0  
0.0  
0.0  
0.0  
0.0  
0.0  
0.0  
0.0  
0.0  
0.0  
0.0  
0.0  
0.0  
0.0  
0.0  
6.68115592078e-05  
1.24977234637e-05  
3.41531123229e-05  
1.16819585183e-05  
1.22956647789e-05  
0.0  
0.0  
5.88932540433e-07  
7.44766444659e-05  
9.02319828465e-05  
0.000130460076576  
2.82008051427e-05  
3.30246546351e-05  
4.7363305005e-05  
7.82574253361e-07  
1.37268766874e-06  
2.78146476579e-06  
5.03609836234e-07  
0.0  
0.0  
6.68115592078e-05  
3.41531123229e-05  
1.16819585183e-05  
1.22956647789e-05  
7.44766444659e-05  
9.02319828465e-05  
0.000130460076576  
5.03609836234e-07  
0.0  
0.0  
7.82574253364e-07  
1.37268766875e-06  
2.78146476579e-06  
2.82008051427e-05  
3.30246546351e-05  
4.7363305005e-05  
0.0  
0.0  
5.91474861232e-06  
3.75623002264e-05  
0.0  
0.0  
0.0  
0.0  
0.0  
0.0  
0.0  
0.0  
0.0  
0.0  
0.0  
0.0  
0.0  
0.0  
0.0  
0.0  
0.0  
0.0  
0.0  
0.0  
0.0  
5.91474861232e-06  
3.75623002264e-05  
0.0  
0.0  
0.0  
0.0  
0.0  
0.0  
0.0  
0.0  
0.0  
4.35312408977e-05  
7.4423840718e-05  
7.74707715836e-05  
6.50149346538e-05  
0.000335969148152  
0.000187514188184  
0.000104060256442  
0.000118320578655  
0.000192402381679  
0.000332404149286  
0.000114236209257  
0.000168231649057  
0.000283250118171  
9.51465560123e-05  
0.000128320769496  
0.000208956055132  
4.35312408977e-05  
7.4423840718e-05  
7.74707715836e-05  
6.50149346538e-05  
0.000335969148152  
0.000187514188184  
0.000104060256442  
9.51465560123e-05  
0.000128320769496  
0.000208956055132  
0.000114236209257  
0.000168231649057  
0.000283250118171  
0.000118320578655  
0.000192402381679  
0.000332404149286  
8.63811501962e-07  
7.80548983682e-06  
2.38942818021e-05  
7.61355342009e-05  
0.000151118714894  
0.000287637677801  
3.94891207742e-05  
9.51893578938e-05  
0.000204772957514  
1.0836149923e-05  
3.83255183536e-05  
0.000113791552955  
8.63811501963e-07  
7.80548983682e-06  
2.38942818021e-05  
1.0836149923e-05  
3.83255183536e-05  
0.000113791552955  
3.94891207742e-05  
9.51893578938e-05  
0.000204772957514  
7.61355342009e-05  
0.000151118714894  
0.000287637677801  
0.000128526609245  
0.0  
0.000107316239229  
5.75055462867e-05  
1.43146428713e-05  
0.000113818805339  
8.78765014067e-05  
6.44373282351e-05  
0.0  
0.0  
5.22339592999e-07  
9.74576612426e-06  
6.51186141043e-06  
1.34041831695e-05  
4.56263283853e-05  
3.46783942365e-05  
3.98708025542e-05  
8.96632252694e-05  
6.9243979606e-05  
5.90763083678e-05  
0.000128526609245  
0.0  
0.000107316239229  
5.75055462867e-05  
1.43146428713e-05  
0.0  
0.0  
5.22339592999e-07  
0.000113818805339  
8.78765014067e-05  
6.44373282351e-05  
8.96632252694e-05  
6.9243979606e-05  
5.90763083678e-05  
4.56263283853e-05  
3.46783942365e-05  
3.98708025542e-05  
9.74576612426e-06  
6.51186141043e-06  
1.34041831695e-05  
0.0  
0.0  
0.0  
0.0  
0.0  
0.0  
0.0  
0.0  
0.0  
0.0  
0.0  
0.0  
0.0  
0.0  
0.0  
0.0  
0.0  
0.0  
0.0  
0.0  
0.0  
0.0  
0.0  
0.0  
0.0  
0.0  
0.0  
0.0  
0.0  
0.0  
0.0  
0.0  
0.000121183070371  
0.000122707248673  
0.000120946508044  
0.000121106001637  
0.000104984647405  
7.25072007958e-05  
4.00486120103e-05  
0.000109545493233  
7.73021888019e-05  
4.48411194937e-05  
0.000104474644281  
7.15918056073e-05  
3.89630297001e-05  
0.00010481811199  
7.22223725919e-05  
3.97545365765e-05  
0.000122707248673  
0.000120946508044  
0.000121106001637  
0.00010481811199  
7.22223725919e-05  
3.97545365765e-05  
0.000104474644281  
7.15918056073e-05  
3.89630297001e-05  
0.000109545493233  
7.73021888019e-05  
4.48411194937e-05  
0.0  
0.0  
0.0  
0.0  
0.0  
0.0  
0.0  
0.0  
0.0  
0.0  
0.0  
0.0  
0.0  
0.0  
0.0  
0.0  
0.0  
0.0  
0.0  
0.0  
0.0  
0.0  
0.0  
0.0  
0.0  
0.0  
0.0  
0.0  
</DataArray>
</PointData>
<CellData>
</CellData>
<Points>
<DataArray type="Float64" Name="Points" NumberOfComponents="3" format="ascii">
0.0 1.2 0.0
0.848528137424 0.848528137424 0.0
0.234108386344 1.1769423365 0.0
0.459220118768 1.10865543904 0.0
0.666684279562 0.997763534804 0.0
0.0 0.6 0.0
0.0 1.05 0.0
0.0 0.9 0.0
0.0 0.75 0.0
0.6 0.6 0.0
0.45 0.6 0.0
0.3 0.6 0.0
0.15 0.6 0.0
0.662132034356 0.662132034356 0.0
0.724264068712 0.724264068712 0.0
0.786396103068 0.786396103068 0.0
0.612513209674 0.898322651094 0.0
0.558342139784 0.79888176739 0.0
0.504171069892 0.699440883692 0.0
0.41941508908 0.981491579275 0.0
0.379610059389 0.854327719512 0.0
0.339805029696 0.727163859754 0.0
0.213081289762 1.03270675237 0.0
0.192054193178 0.888471168244 0.0
0.171027096591 0.744235584121 0.0
-0.848528137424 0.848528137424 0.0
-0.234108386344 1.1769423365 0.0
-0.459220118768 1.10865543904 0.0
-0.666684279562 0.997763534804 0.0
-0.6 0.6 0.0
-0.786396103068 0.786396103068 0.0
-0.724264068712 0.724264068712 0.0
-0.662132034356 0.662132034356 0.0
-0.45 0.6 0.0
-0.3 0.6 0.0
-0.15 0.6 0.0
-0.213081289762 1.03270675237 0.0
-0.192054193178 0.888471168244 0.0
-0.171027096591 0.744235584121 0.0
-0.41941508908 0.981491579275 0.0
-0.379610059389 0.854327719512 0.0
-0.339805029696 0.727163859754 0.0
-0.612513209674 0.898322651094 0.0
-0.558342139784 0.79888176739 0.0
-0.504171069892 0.699440883692 0.0
-0.6 -0.6 0.0
0.0 -0.6 0.0
-0.45 -0.6 0.0
-0.3 -0.6 0.0
-0.15 -0.6 0.0
-0.848528137424 -0.848528137424 0.0
-0.662132034356 -0.662132034356 0.0
-0.724264068712 -0.724264068712 0.0
-0.786396103068 -0.786396103068 0.0
0.0 -1.2 0.0
-0.234108386344 -1.1769423365 0.0
-0.459220118768 -1.10865543904 0.0
-0.666684279562 -0.997763534804 0.0
0.0 -1.05 0.0
0.0 -0.9 0.0
0.0 -0.75 0.0
-0.171027096591 -0.744235584121 0.0
-0.192054193178 -0.888471168244 0.0
-0.213081289762 -1.03270675237 0.0
-0.339805029696 -0.727163859754 0.0
-0.379610059389 -0.854327719512 0.0
-0.41941508908 -0.981491579275 0.0
-0.504171069892 -0.699440883692 0.0
-0.558342139784 -0.79888176739 0.0
-0.612513209674 -0.898322651094 0.0
0.848528137424 -0.848528137424 0.0
0.234108386344 -1.1769423365 0.0
0.459220118768 -1.10865543904 0.0
0.666684279562 -0.997763534804 0.0
0.6 -0.6 0.0
0.662132034356 -0.662132034356 0.0
0.724264068712 -0.724264068712 0.0
0.786396103068 -0.786396103068 0.0
0.45 -0.6 0.0
0.3 -0.6 0.0
0.15 -0.6 0.0
0.213081289762 -1.03270675237 0.0
0.192054193178 -0.888471168244 0.0
0.171027096591 -0.744235584121 0.0
0.41941508908 -0.981491579275 0.0
0.379610059389 -0.854327719512 0.0
0.339805029696 -0.727163859754 0.0
0.612513209674 -0.898322651094 0.0
0.558342139784 -0.79888176739 0.0
0.504171069892 -0.699440883692 0.0
0.6 0.0 0.0
0.6 -0.45 0.0
0.6 -0.3 0.0
0.6 -0.15 0.0
1.2 0.0 0.0
1.1769423365 -0.234108386344 0.0
1.10865543904 -0.459220118768 0.0
0.997763534804 -0.666684279562 0.0
1.05 0.0 0.0
0.9 0.0 0.0
0.75 0.0 0.0
0.744235584121 -0.171027096591 0.0
0.888471168244 -0.192054193178 0.0
1.03270675237 -0.213081289762 0.0
0.727163859754 -0.339805029696 0.0
0.854327719512 -0.379610059389 0.0
0.981491579275 -0.41941508908 0.0
0.699440883692 -0.504171069892 0.0
0.79888176739 -0.558342139784 0.0
0.898322651094 -0.612513209674 0.0
1.1769423365 0.234108386344 0.0
1.10865543904 0.459220118768 0.0
0.997763534804 0.666684279562 0.0
0.6 0.45 0.0
0.6 0.3 0.0
0.6 0.15 0.0
1.03270675237 0.213081289762 0.0
0.888471168244 0.192054193178 0.0
0.744235584121 0.171027096591 0.0
0.981491579275 0.41941508908 0.0
0.854327719512 0.379610059389 0.0
0.727163859754 0.339805029696 0.0
0.898322651094 0.612513209674 0.0
0.79888176739 0.558342139784 0.0
0.699440883692 0.504171069892 0.0
-1.2 0.0 0.0
-1.1769423365 -0.234108386344 0.0
-1.10865543904 -0.459220118768 0.0
-0.997763534804 -0.666684279562 0.0
-0.6 0.0 0.0
-0.6 -0.45 0.0
-0.6 -0.3 0.0
-0.6 -0.15 0.0
-1.05 0.0 0.0
-0.9 0.0 0.0
-0.75 0.0 0.0
-1.03270675237 -0.213081289762 0.0
-0.888471168244 -0.192054193178 0.0
-0.744235584121 -0.171027096591 0.0
-0.981491579275 -0.41941508908 0.0
-0.854327719512 -0.379610059389 0.0
-0.727163859754 -0.339805029696 0.0
-0.898322651094 -0.612513209674 0.0
-0.79888176739 -0.558342139784 0.0
-0.699440883692 -0.504171069892 0.0
-1.1769423365 0.234108386344 0.0
-1.10865543904 0.459220118768 0.0
-0.997763534804 0.666684279562 0.0
-0.6 0.45 0.0
-0.6 0.3 0.0
-0.6 0.15 0.0
-0.898322651094 0.612513209674 0.0
-0.79888176739 0.558342139784 0.0
-0.699440883692 0.504171069892 0.0
-0.981491579275 0.41941508908 0.0
-0.854327719512 0.379610059389 0.0
-0.727163859754 0.339805029696 0.0
-1.03270675237 0.213081289762 0.0
-0.888471168244 0.192054193178 0.0
-0.744235584121 0.171027096591 0.0
-0.45 -0.45 0.0
-0.45 -0.3 0.0
-0.45 -0.15 0.0
-0.45 -2.77555756156e-17 0.0
-0.45 0.15 0.0
-0.45 0.3 0.0
-0.45 0.45 0.0
-0.3 -0.45 0.0
-0.3 -0.3 0.0
-0.3 -0.15 0.0
-0.3 0.0 0.0
-0.3 0.15 0.0
-0.3 0.3 0.0
-0.3 0.45 0.0
-0.15 -0.45 0.0
-0.15 -0.3 0.0
-0.15 -0.15 0.0
-0.15 0.0 0.0
-0.15 0.15 0.0
-0.15 0.3 0.0
-0.15 0.45 0.0
0.0 -0.45 0.0
0.0 -0.3 0.0
0.0 -0.15 0.0
0.0 0.0 0.0
0.0 0.15 0.0
0.0 0.3 0.0
0.0 0.45 0.0
0.15 -0.45 0.0
0.15 -0.3 0.0
0.15 -0.15 0.0
0.15 0.0 0.0
0.15 0.15 0.0
0.15 0.3 0.0
0.15 0.45 0.0
0.3 -0.45 0.0
0.3 -0.3 0.0
0.3 -0.15 0.0
0.3 0.0 0.0
0.3 0.15 0.0
0.3 0.3 0.0
0.3 0.45 0.0
0.45 -0.45 0.0
0.45 -0.3 0.0
0.45 -0.15 0.0
0.45 0.0 0.0
0.45 0.15 0.0
0.45 0.3 0.0
0.45 0.45 0.0
-2.0 -2.0 0.0
0.0 -2.0 0.0
-1.5 -2.0 0.0
-1.0 -2.0 0.0
-0.5 -2.0 0.0
0.0 -1.4 0.0
0.0 -1.6 0.0
0.0 -1.8 0.0
-1.71213203436 -1.71213203436 0.0
-1.42426406871 -1.42426406871 0.0
-1.13639610307 -1.13639610307 0.0
-1.29167106987 -1.74944088369 0.0
-1.08334213976 -1.49888176739 0.0
-0.875013209653 -1.24832265109 0.0
-0.864805029675 -1.77716385975 0.0
-0.729610059361 -1.55432771951 0.0
-0.594415089059 -1.33149157928 0.0
-0.433527096569 -1.79423558412 0.0
-0.367054193149 -1.58847116824 0.0
-0.300581289741 -1.38270675237 0.0
2.0 -2.0 0.0
1.5 -2.0 0.0
1.0 -2.0 0.0
0.5 -2.0 0.0
1.71213203436 -1.71213203436 0.0
1.42426406871 -1.42426406871 0.0
1.13639610307 -1.13639610307 0.0
0.433527096569 -1.79423558412 0.0
0.367054193149 -1.58847116824 0.0
0.300581289741 -1.38270675237 0.0
0.864805029675 -1.77716385975 0.0
0.729610059361 -1.55432771951 0.0
0.594415089059 -1.33149157928 0.0
1.29167106987 -1.74944088369 0.0
1.08334213976 -1.49888176739 0.0
0.875013209653 -1.24832265109 0.0
2.0 2.0 0.0
1.71213203436 1.71213203436 0.0
1.42426406871 1.42426406871 0.0
1.13639610307 1.13639610307 0.0
0.0 2.0 0.0
1.5 2.0 0.0
1.0 2.0 0.0
0.5 2.0 0.0
0.0 1.4 0.0
0.0 1.6 0.0
0.0 1.8 0.0
0.300581289741 1.38270675237 0.0
0.367054193149 1.58847116824 0.0
0.433527096569 1.79423558412 0.0
0.594415089059 1.33149157928 0.0
0.729610059361 1.55432771951 0.0
0.864805029675 1.77716385975 0.0
0.875013209653 1.24832265109 0.0
1.08334213976 1.49888176739 0.0
1.29167106987 1.74944088369 0.0
-2.0 2.0 0.0
-1.5 2.0 0.0
-1.0 2.0 0.0
-0.5 2.0 0.0
-1.71213203436 1.71213203436 0.0
-1.42426406871 1.42426406871 0.0
-1.13639610307 1.13639610307 0.0
-0.875013209653 1.24832265109 0.0
-1.08334213976 1.49888176739 0.0
-1.29167106987 1.74944088369 0.0
-0.594415089059 1.33149157928 0.0
-0.729610059361 1.55432771951 0.0
-0.864805029675 1.77716385975 0.0
-0.300581289741 1.38270675237 0.0
-0.367054193149 1.58847116824 0.0
-0.433527096569 1.79423558412 0.0
-2.0 0.0 0.0
-2.0 -1.5 0.0
-2.0 -1.0 0.0
-2.0 -0.5 0.0
-1.4 0.0 0.0
-1.6 0.0 0.0
-1.8 0.0 0.0
-1.79423558412 -0.433527096569 0.0
-1.58847116824 -0.367054193149 0.0
-1.38270675237 -0.300581289741 0.0
-1.77716385975 -0.864805029675 0.0
-1.55432771951 -0.729610059361 0.0
-1.33149157928 -0.594415089059 0.0
-1.74944088369 -1.29167106987 0.0
-1.49888176739 -1.08334213976 0.0
-1.24832265109 -0.875013209653 0.0
2.0 0.0 0.0
2.0 -1.5 0.0
2.0 -1.0 0.0
2.0 -0.5 0.0
1.4 0.0 0.0
1.6 0.0 0.0
1.8 0.0 0.0
1.74944088369 -1.29167106987 0.0
1.49888176739 -1.08334213976 0.0
1.24832265109 -0.875013209653 0.0
1.77716385975 -0.864805029675 0.0
1.55432771951 -0.729610059361 0.0
1.33149157928 -0.594415089059 0.0
1.79423558412 -0.433527096569 0.0
1.58847116824 -0.367054193149 0.0
1.38270675237 -0.300581289741 0.0
2.0 1.5 0.0
2.0 1.0 0.0
2.0 0.5 0.0
1.79423558412 0.433527096569 0.0
1.58847116824 0.367054193149 0.0
1.38270675237 0.300581289741 0.0
1.77716385975 0.864805029675 0.0
1.55432771951 0.729610059361 0.0
1.33149157928 0.594415089059 0.0
1.74944088369 1.29167106987 0.0
1.49888176739 1.08334213976 0.0
1.24832265109 0.875013209653 0.0
-2.0 1.5 0.0
-2.0 1.0 0.0
-2.0 0.5 0.0
-1.74944088369 1.29167106987 0.0
-1.49888176739 1.08334213976 0.0
-1.24832265109 0.875013209653 0.0
-1.77716385975 0.864805029675 0.0
-1.55432771951 0.729610059361 0.0
-1.33149157928 0.594415089059 0.0
-1.79423558412 0.433527096569 0.0
-1.58847116824 0.367054193149 0.0
-1.38270675237 0.300581289741 0.0
-6.0 -6.0 0.0
-6.0 0.0 0.0
-6.0 -4.5 0.0
-6.0 -3.0 0.0
-6.0 -1.5 0.0
-5.0 -5.0 0.0
-4.0 -4.0 0.0
-3.0 -3.0 0.0
-5.0 0.0 0.0
-4.0 0.0 0.0
-3.0 0.0 0.0
-5.0 -1.25 0.0
-4.0 -1.0 0.0
-3.0 -0.75 0.0
-5.0 -2.5 0.0
-4.0 -2.0 0.0
-3.0 -1.5 0.0
-5.0 -3.75 0.0
-4.0 -3.0 0.0
-3.0 -2.25 0.0
6.0 -6.0 0.0
6.0 -1.7763568394e-15 0.0
6.0 -4.5 0.0
6.0 -3.0 0.0
6.0 -1.5 0.0
5.0 -1.33226762955e-15 0.0
4.0 -8.881784197e-16 0.0
3.0 -4.4408920985e-16 0.0
5.0 -5.0 0.0
4.0 -4.0 0.0
3.0 -3.0 0.0
5.0 -3.75 0.0
4.0 -3.0 0.0
3.0 -2.25 0.0
5.0 -2.5 0.0
4.0 -2.0 0.0
3.0 -1.5 0.0
5.0 -1.25 0.0
4.0 -1.0 0.0
3.0 -0.75 0.0
6.0 6.0 0.0
6.0 4.5 0.0
6.0 3.0 0.0
6.0 1.5 0.0
5.0 5.0 0.0
4.0 4.0 0.0
3.0 3.0 0.0
5.0 1.25 0.0
4.0 1.0 0.0
3.0 0.75 0.0
5.0 2.5 0.0
4.0 2.0 0.0
3.0 1.5 0.0
5.0 3.75 0.0
4.0 3.0 0.0
3.0 2.25 0.0
-6.0 6.0 0.0
-5.0 5.0 0.0
-4.0 4.0 0.0
-3.0 3.0 0.0
-6.0 4.5 0.0
-6.0 3.0 0.0
-6.0 1.5 0.0
-3.0 0.75 0.0
-4.0 1.0 0.0
-5.0 1.25 0.0
-3.0 1.5 0.0
-4.0 2.0 0.0
-5.0 2.5 0.0
-3.0 2.25 0.0
-4.0 3.0 0.0
-5.0 3.75 0.0
0.0 -6.0 0.0
-4.5 -6.0 0.0
-3.0 -6.0 0.0
-1.5 -6.0 0.0
0.0 -5.0 0.0
0.0 -4.0 0.0
0.0 -3.0 0.0
-3.75 -5.0 0.0
-3.0 -4.0 0.0
-2.25 -3.0 0.0
-2.5 -5.0 0.0
-2.0 -4.0 0.0
-1.5 -3.0 0.0
-1.25 -5.0 0.0
-1.0 -4.0 0.0
-0.75 -3.0 0.0
4.5 -6.0 0.0
3.0 -6.0 0.0
1.5 -6.0 0.0
1.25 -5.0 0.0
1.0 -4.0 0.0
0.75 -3.0 0.0
2.5 -5.0 0.0
2.0 -4.0 0.0
1.5 -3.0 0.0
3.75 -5.0 0.0
3.0 -4.0 0.0
2.25 -3.0 0.0
0.0 6.0 0.0
4.5 6.0 0.0
3.0 6.0 0.0
1.5 6.0 0.0
0.0 5.0 0.0
0.0 4.0 0.0
0.0 3.0 0.0
0.75 3.0 0.0
1.0 4.0 0.0
1.25 5.0 0.0
1.5 3.0 0.0
2.0 4.0 0.0
2.5 5.0 0.0
2.25 3.0 0.0
3.0 4.0 0.0
3.75 5.0 0.0
-4.5 6.0 0.0
-3.0 6.0 0.0
-1.5 6.0 0.0
-1.25 5.0 0.0
-1.0 4.0 0.0
-0.75 3.0 0.0
-2.5 5.0 0.0
-2.0 4.0 0.0
-1.5 3.0 0.0
-3.75 5.0 0.0
-3.0 4.0 0.0
-2.25 3.0 0.0
</DataArray>
</Points>
<Cells>
<DataArray type="Int64" Name="connectivity" format="ascii">
209 211 220 217 
211 212 223 220 
212 213 226 223 
213 210 216 226 
217 220 221 218 
220 223 224 221 
223 226 227 224 
226 216 215 227 
218 221 222 219 
221 224 225 222 
224 227 228 225 
227 215 214 228 
219 222 57 50 
222 225 56 57 
225 228 55 56 
228 214 54 55 
210 232 236 216 
232 231 239 236 
231 230 242 239 
230 229 233 242 
216 236 237 215 
236 239 240 237 
239 242 243 240 
242 233 234 243 
215 237 238 214 
237 240 241 238 
240 243 244 241 
243 234 235 244 
214 238 71 54 
238 241 72 71 
241 244 73 72 
244 235 70 73 
0 2 256 253 
2 3 259 256 
3 4 262 259 
4 1 248 262 
253 256 257 254 
256 259 260 257 
259 262 263 260 
262 248 247 263 
254 257 258 255 
257 260 261 258 
260 263 264 261 
263 247 246 264 
255 258 252 249 
258 261 251 252 
261 264 250 251 
264 246 245 250 
25 28 272 271 
28 27 275 272 
27 26 278 275 
26 0 253 278 
271 272 273 270 
272 275 276 273 
275 278 279 276 
278 253 254 279 
270 273 274 269 
273 276 277 274 
276 279 280 277 
279 254 255 280 
269 274 266 265 
274 277 267 266 
277 280 268 267 
280 255 249 268 
281 284 288 287 
284 283 291 288 
283 282 294 291 
282 209 217 294 
287 288 289 286 
288 291 292 289 
291 294 295 292 
294 217 218 295 
286 289 290 285 
289 292 293 290 
292 295 296 293 
295 218 219 296 
285 290 126 125 
290 293 127 126 
293 296 128 127 
296 219 50 128 
229 298 304 233 
298 299 307 304 
299 300 310 307 
300 297 303 310 
233 304 305 234 
304 307 308 305 
307 310 311 308 
310 303 302 311 
234 305 306 235 
305 308 309 306 
308 311 312 309 
311 302 301 312 
235 306 97 70 
306 309 96 97 
309 312 95 96 
312 301 94 95 
297 315 316 303 
315 314 319 316 
314 313 322 319 
313 245 246 322 
303 316 317 302 
316 319 320 317 
319 322 323 320 
322 246 247 323 
302 317 318 301 
317 320 321 318 
320 323 324 321 
323 247 248 324 
301 318 110 94 
318 321 111 110 
321 324 112 111 
324 248 1 112 
265 325 328 269 
325 326 331 328 
326 327 334 331 
327 281 287 334 
269 328 329 270 
328 331 332 329 
331 334 335 332 
334 287 286 335 
270 329 330 271 
329 332 333 330 
332 335 336 333 
335 286 285 336 
271 330 147 25 
330 333 146 147 
333 336 145 146 
336 285 125 145 
338 341 348 345 
341 340 351 348 
340 339 354 351 
339 337 342 354 
345 348 349 346 
348 351 352 349 
351 354 355 352 
354 342 343 355 
346 349 350 347 
349 352 353 350 
352 355 356 353 
355 343 344 356 
347 350 284 281 
350 353 283 284 
353 356 282 283 
356 344 209 282 
357 359 368 365 
359 360 371 368 
360 361 374 371 
361 358 362 374 
365 368 369 366 
368 371 372 369 
371 374 375 372 
374 362 363 375 
366 369 370 367 
369 372 373 370 
372 375 376 373 
375 363 364 376 
367 370 298 229 
370 373 299 298 
373 376 300 299 
376 364 297 300 
358 380 384 362 
380 379 387 384 
379 378 390 387 
378 377 381 390 
362 384 385 363 
384 387 388 385 
387 390 391 388 
390 381 382 391 
363 385 386 364 
385 388 389 386 
388 391 392 389 
391 382 383 392 
364 386 315 297 
386 389 314 315 
389 392 313 314 
392 383 245 313 
281 327 400 347 
327 326 403 400 
326 325 406 403 
325 265 396 406 
347 400 401 346 
400 403 404 401 
403 406 407 404 
406 396 395 407 
346 401 402 345 
401 404 405 402 
404 407 408 405 
407 395 394 408 
345 402 399 338 
402 405 398 399 
405 408 397 398 
408 394 393 397 
337 410 416 342 
410 411 419 416 
411 412 422 419 
412 409 413 422 
342 416 417 343 
416 419 420 417 
419 422 423 420 
422 413 414 423 
343 417 418 344 
417 420 421 418 
420 423 424 421 
423 414 415 424 
344 418 211 209 
418 421 212 211 
421 424 213 212 
424 415 210 213 
409 427 428 413 
427 426 431 428 
426 425 434 431 
425 357 365 434 
413 428 429 414 
428 431 432 429 
431 434 435 432 
434 365 366 435 
414 429 430 415 
429 432 433 430 
432 435 436 433 
435 366 367 436 
415 430 232 210 
430 433 231 232 
433 436 230 231 
436 367 229 230 
249 252 444 443 
252 251 447 444 
251 250 450 447 
250 245 383 450 
443 444 445 442 
444 447 448 445 
447 450 451 448 
450 383 382 451 
442 445 446 441 
445 448 449 446 
448 451 452 449 
451 382 381 452 
441 446 440 437 
446 449 439 440 
449 452 438 439 
452 381 377 438 
437 455 456 441 
455 454 459 456 
454 453 462 459 
453 393 394 462 
441 456 457 442 
456 459 460 457 
459 462 463 460 
462 394 395 463 
442 457 458 443 
457 460 461 458 
460 463 464 461 
463 395 396 464 
443 458 268 249 
458 461 267 268 
461 464 266 267 
464 396 265 266 
</DataArray>
<DataArray type="Int64" Name="offsets" format="ascii">
4
8
12
16
20
24
28
32
36
40
44
48
52
56
60
64
68
72
76
80
84
88
92
96
100
104
108
112
116
120
124
128
132
136
140
144
148
152
156
160
164
168
172
176
180
184
188
192
196
200
204
208
212
216
220
224
228
232
236
240
244
248
252
256
260
264
268
272
276
280
284
288
292
296
300
304
308
312
316
320
324
328
332
336
340
344
348
352
356
360
364
368
372
376
380
384
388
392
396
400
404
408
412
416
420
424
428
432
436
440
444
448
452
456
460
464
468
472
476
480
484
488
492
496
500
504
508
512
516
520
524
528
532
536
540
544
548
552
556
560
564
568
572
576
580
584
588
592
596
600
604
608
612
616
620
624
628
632
636
640
644
648
652
656
660
664
668
672
676
680
684
688
692
696
700
704
708
712
716
720
724
728
732
736
740
744
748
752
756
760
764
768
772
776
780
784
788
792
796
800
804
808
812
816
820
824
828
832
836
840
844
848
852
856
860
864
868
872
876
880
884
888
892
896
900
904
908
912
916
920
924
928
932
936
940
944
948
952
956
960
964
968
972
976
980
984
988
992
996
1000
1004
1008
1012
1016
1020
1024
</DataArray>
<DataArray type="UInt8" Name="types" format="ascii" RangeMin="9" RangeMax="9">
9
9
9
9
9
9
9
9
9
9
9
9
9
9
9
9
9
9
9
9
9
9
9
9
9
9
9
9
9
9
9
9
9
9
9
9
9
9
9
9
9
9
9
9
9
9
9
9
9
9
9
9
9
9
9
9
9
9
9
9
9
9
9
9
9
9
9
9
9
9
9
9
9
9
9
9
9
9
9
9
9
9
9
9
9
9
9
9
9
9
9
9
9
9
9
9
9
9
9
9
9
9
9
9
9
9
9
9
9
9
9
9
9
9
9
9
9
9
9
9
9
9
9
9
9
9
9
9
9
9
9
9
9
9
9
9
9
9
9
9
9
9
9
9
9
9
9
9
9
9
9
9
9
9
9
9
9
9
9
9
9
9
9
9
9
9
9
9
9
9
9
9
9
9
9
9
9
9
9
9
9
9
9
9
9
9
9
9
9
9
9
9
9
9
9
9
9
9
9
9
9
9
9
9
9
9
9
9
9
9
9
9
9
9
9
9
9
9
9
9
9
9
9
9
9
9
9
9
9
9
9
9
9
9
9
9
9
9
9
9
9
9
9
9
9
9
9
9
9
9
9
9
9
9
9
9
</DataArray>
</Cells>
</Piece>
</UnstructuredGrid>
</VTKFile>
