<?xml version="1.0"?>
<VTKFile type="UnstructuredGrid" version="0.1" byte_order="LittleEndian" compressor="vtkZLibDataCompressor">
<UnstructuredGrid>
<Piece NumberOfPoints="8" NumberOfCells="1">
<PointData>
<DataArray type="Float64" Name="displacement" NumberOfComponents="3" format="ascii" >
-0.0023939388339 -0.00490382336312 0.0 
-0.00149434604957 -0.00316502265575 0.0 
-0.00413273954127 -0.00400423057879 0.0 
-0.00323314675693 -0.00226542987142 0.0 
-0.00149434604957 -0.00316502265575 0.0208656084884 
-0.00323314675693 -0.00226542987142 0.0208656084884 
-0.00413273954127 -0.00400423057879 0.0208656084884 
-0.0023939388339 -0.00490382336312 0.0208656084884 
</DataArray>
<DataArray type="Float64" Name="stresses" NumberOfComponents="6" format="ascii" >
-20.0 -20.0 -60.0 2.20368862626e-14 -4.43623254742e-14 -8.28832558275e-14  
-20.0 -20.0 -60.0 2.03634948496e-14 -5.08258285935e-14 -4.09603890042e-14  
-20.0 -20.0 -60.0 3.80743198129e-14 -7.24024119173e-14 -9.74336363356e-14  
-20.0 -20.0 -60.0 4.13059685982e-14 -5.69914475996e-14 -2.4298048988e-14  
-20.0 -20.0 -60.0 -1.64919095645e-14 -3.21887444892e-14 5.54310591786e-15  
-20.0 -20.0 -60.0 -3.30893125734e-14 1.34593189375e-13 -5.10266498909e-14  
-20.0 -20.0 -60.0 -5.2283806303e-14 1.37875770713e-13 1.67089140716e-13  
-20.0 -20.0 -60.0 -2.89763359544e-14 -1.17085783243e-14 1.2491200215e-13  
</DataArray>
</PointData>
<CellData>
</CellData>
<Points>
<DataArray type="Float64" Name="Points" NumberOfComponents="3" format="ascii">
0.0 1.0 0.0 
0.0 0.0 0.0 
1.0 1.0 0.0 
1.0 0.0 0.0 
0.0 0.0 1.0 
1.0 0.0 1.0 
1.0 1.0 1.0 
0.0 1.0 1.0 
</DataArray>
</Points>
<Cells>
<DataArray type="Int64" Name="connectivity" format="ascii">
1 3 2 0 4 5 6 7 
</DataArray>
<DataArray type="Int64" Name="offsets" format="ascii">
8
</DataArray>
<DataArray type="UInt8" Name="types" format="ascii" RangeMin="12" RangeMax="12">
12
</DataArray>
</Cells>
</Piece>
</UnstructuredGrid>
</VTKFile>
