<?xml version="1.0"?>
<VTKFile type="UnstructuredGrid" version="0.1" byte_order="LittleEndian" compressor="vtkZLibDataCompressor">
<UnstructuredGrid>
<Piece NumberOfPoints="8" NumberOfCells="1">
<PointData>
<DataArray type="Float64" Name="displacement" NumberOfComponents="3" format="ascii" >
-0.00259894562082 -0.00588844608086 0.0 
-0.00152621890919 -0.00429327490594 0.0 
-0.00419411679575 -0.00481571936923 0.0 
-0.00312139008411 -0.00322054819431 0.0 
-0.00152621890919 -0.00429327490594 0.0191420540991 
-0.00312139008411 -0.00322054819431 0.0191420540991 
-0.00419411679575 -0.00481571936923 0.0191420540991 
-0.00259894562082 -0.00588844608086 0.0191420540991 
</DataArray>
<DataArray type="Float64" Name="stresses" NumberOfComponents="6" format="ascii" >
-40.0 -40.0 -120.0 6.95906832168e-15 -2.68478883706e-14 -3.85040389766e-14  
-40.0 -40.0 -120.0 6.98811539003e-15 -2.38383535636e-14 -1.70419656386e-14  
-40.0 -40.0 -120.0 1.69083013859e-14 -4.26457894547e-14 -5.42583557596e-14  
-40.0 -40.0 -120.0 2.93401573948e-14 -3.25232847496e-14 -5.58936632052e-15  
-40.0 -40.0 -120.0 -4.79597870851e-15 5.43437192265e-15 2.76156069853e-15  
-40.0 -40.0 -120.0 -2.72145234764e-14 6.77726791202e-14 -5.09768653707e-14  
-40.0 -40.0 -120.0 -3.38216531042e-14 7.48750922929e-14 8.76249012975e-14  
-40.0 -40.0 -120.0 -5.0993850114e-15 7.26415911128e-15 5.59093072935e-14  
</DataArray>
</PointData>
<CellData>
</CellData>
<Points>
<DataArray type="Float64" Name="Points" NumberOfComponents="3" format="ascii">
0.0 1.0 0.0 
0.0 0.0 0.0 
1.0 1.0 0.0 
1.0 0.0 0.0 
0.0 0.0 1.0 
1.0 0.0 1.0 
1.0 1.0 1.0 
0.0 1.0 1.0 
</DataArray>
</Points>
<Cells>
<DataArray type="Int64" Name="connectivity" format="ascii">
1 3 2 0 4 5 6 7 
</DataArray>
<DataArray type="Int64" Name="offsets" format="ascii">
8
</DataArray>
<DataArray type="UInt8" Name="types" format="ascii" RangeMin="12" RangeMax="12">
12
</DataArray>
</Cells>
</Piece>
</UnstructuredGrid>
</VTKFile>
