<?xml version="1.0"?>
<VTKFile type="UnstructuredGrid" version="0.1" byte_order="LittleEndian" compressor="vtkZLibDataCompressor">
<UnstructuredGrid>
<Piece NumberOfPoints="8" NumberOfCells="1">
<PointData>
<DataArray type="Float64" Name="displacement" NumberOfComponents="3" format="ascii" >
-0.034560296293 0.0320327466001 0.0 
0.0308221518852 0.0162827466001 0.0 
-0.018810296293 0.0974151947782 0.0 
0.0465721518852 0.0816651947782 0.0 
0.0308221518852 0.0162827466001 -0.0395 
0.0465721518852 0.0816651947782 -0.0395 
-0.018810296293 0.0974151947782 -0.0395 
-0.034560296293 0.0320327466001 -0.0395 
</DataArray>
<DataArray type="Float64" Name="stresses" NumberOfComponents="6" format="ascii" >
6.13963841027e-09 1.05862557871e-08 -4000000.0 3.66738920335e-10 -9.32879241406e-10 -3.73197685822e-10  
1.01791022082e-08 1.16156377056e-08 -4000000.0 2.43027277469e-09 1.19615730624e-09 6.15437852187e-10  
-8.19780215237e-09 -1.19459275983e-08 -4000000.0 -1.86918032608e-09 -9.11710567568e-10 -4.7906922276e-10  
-7.44528168252e-09 -1.42034890078e-08 -4000000.0 2.53994367089e-09 -2.40539650745e-09 -3.19861459901e-10  
-3.56014535215e-09 -6.09844728492e-09 -4000000.0 -3.20154983446e-09 2.26966152388e-09 -8.12161599856e-10  
-2.53076343363e-09 7.06030430105e-10 -4000000.0 -2.70586831328e-09 -5.11415417326e-10 -1.67157817613e-09  
1.15905629735e-08 1.50434709927e-08 -4000000.0 -1.56683575045e-09 2.35178392065e-09 3.77514725691e-10  
-3.61417389103e-09 -5.93636166826e-09 -4000000.0 7.725147312e-10 -1.1817918569e-09 1.10087949547e-09  
</DataArray>
<DataArray type="Float64" Name="equivalent_strain" NumberOfComponents="1" format="ascii" >
0.0195  
0.0195  
0.0195  
0.0195  
0.0195  
0.0195  
0.0195  
0.0195  
</DataArray>
</PointData>
<CellData>
</CellData>
<Points>
<DataArray type="Float64" Name="Points" NumberOfComponents="3" format="ascii">
0.0 1.0 0.0 
0.0 0.0 0.0 
1.0 1.0 0.0 
1.0 0.0 0.0 
0.0 0.0 1.0 
1.0 0.0 1.0 
1.0 1.0 1.0 
0.0 1.0 1.0 
</DataArray>
</Points>
<Cells>
<DataArray type="Int64" Name="connectivity" format="ascii">
1 3 2 0 4 5 6 7 
</DataArray>
<DataArray type="Int64" Name="offsets" format="ascii">
8
</DataArray>
<DataArray type="UInt8" Name="types" format="ascii" RangeMin="12" RangeMax="12">
12
</DataArray>
</Cells>
</Piece>
</UnstructuredGrid>
</VTKFile>
