<?xml version="1.0"?>
<VTKFile type="UnstructuredGrid" version="0.1" byte_order="LittleEndian" compressor="vtkZLibDataCompressor">
<UnstructuredGrid>
<Piece NumberOfPoints="8" NumberOfCells="1">
<PointData>
<DataArray type="Float64" Name="displacement" NumberOfComponents="3" format="ascii" >
0.0496932077626 0.0204638925377 0.0 
0.000639496641803 0.0204638925377 0.0 
0.0496932077626 -0.0285898185831 0.0 
0.000639496641803 -0.0285898185831 0.0 
0.000639496641803 0.0204638925377 1.36440067144e-17 
0.000639496641803 -0.0285898185831 -1.45825192199e-17 
0.0496932077626 -0.0285898185831 1.25000879983e-17 
0.0496932077626 0.0204638925377 -1.73472347598e-17 
</DataArray>
<DataArray type="Float64" Name="stresses" NumberOfComponents="6" format="ascii" >
-100.0 -100.0 -300.0 -6.40970483365e-14 -9.8531311963e-14 1.14766898346e-13  
-100.0 -100.0 -300.0 -3.25418519367e-14 5.95401385058e-14 -5.41342838138e-14  
-100.0 -100.0 -300.0 -5.98466997299e-14 1.06753488813e-13 6.1687620604e-14  
-100.0 -100.0 -300.0 6.85358261412e-14 -7.98682740623e-14 1.85913888089e-14  
-100.0 -100.0 -300.0 4.92998560698e-14 1.07445260197e-13 -3.30697679657e-14  
-100.0 -100.0 -300.0 -4.60093638919e-14 -1.39222857822e-13 -4.98103130252e-14  
-100.0 -100.0 -300.0 1.41001910364e-13 3.1918817614e-14 6.0318949815e-15  
-100.0 -100.0 -300.0 1.84684420368e-13 -8.71191383994e-15 1.13456576734e-14  
</DataArray>
</PointData>
<CellData>
</CellData>
<Points>
<DataArray type="Float64" Name="Points" NumberOfComponents="3" format="ascii">
0.0 1.0 0.0 
0.0 0.0 0.0 
1.0 1.0 0.0 
1.0 0.0 0.0 
0.0 0.0 1.0 
1.0 0.0 1.0 
1.0 1.0 1.0 
0.0 1.0 1.0 
</DataArray>
</Points>
<Cells>
<DataArray type="Int64" Name="connectivity" format="ascii">
1 3 2 0 4 5 6 7 
</DataArray>
<DataArray type="Int64" Name="offsets" format="ascii">
8
</DataArray>
<DataArray type="UInt8" Name="types" format="ascii" RangeMin="12" RangeMax="12">
12
</DataArray>
</Cells>
</Piece>
</UnstructuredGrid>
</VTKFile>
