<?xml version="1.0"?>
<VTKFile type="UnstructuredGrid" version="0.1" byte_order="LittleEndian" compressor="vtkZLibDataCompressor">
<UnstructuredGrid>
<Piece NumberOfPoints="8" NumberOfCells="1">
<PointData>
<DataArray type="Float64" Name="displacement" NumberOfComponents="3" format="ascii" >
0.00392622485561 0.00165642630585 0.0 
0.00204724122151 0.00302766594438 0.0 
0.00255498521708 -0.000222557328247 0.0 
0.00067600158298 0.00114868231028 0.0 
0.00204724122151 0.00302766594438 0.0164548756623 
0.00067600158298 0.00114868231028 0.0164548756623 
0.00255498521708 -0.000222557328247 0.0164548756623 
0.00392622485561 0.00165642630585 0.0164548756623 
</DataArray>
<DataArray type="Float64" Name="stresses" NumberOfComponents="6" format="ascii" >
-60.0 -60.0 -180.0 2.37571541122e-14 -9.07315943509e-15 -1.88442343317e-14  
-60.0 -60.0 -180.0 -2.21645550923e-14 -3.15822537481e-14 1.17488436296e-14  
-60.0 -60.0 -180.0 1.02904371509e-14 -2.8323604534e-14 -8.56757910177e-15  
-60.0 -60.0 -180.0 1.76368789941e-15 -8.27172445897e-15 6.89657162175e-15  
-60.0 -60.0 -180.0 3.92966435739e-14 -1.42335798458e-14 1.06092397296e-15  
-60.0 -60.0 -180.0 4.65929064584e-15 2.19418971437e-14 -6.15827648747e-14  
-60.0 -60.0 -180.0 -3.12444899257e-14 2.23255485885e-14 3.8000182253e-14  
-60.0 -60.0 -180.0 -3.2495193148e-14 2.30166322547e-14 5.37910085779e-15  
</DataArray>
</PointData>
<CellData>
</CellData>
<Points>
<DataArray type="Float64" Name="Points" NumberOfComponents="3" format="ascii">
0.0 1.0 0.0 
0.0 0.0 0.0 
1.0 1.0 0.0 
1.0 0.0 0.0 
0.0 0.0 1.0 
1.0 0.0 1.0 
1.0 1.0 1.0 
0.0 1.0 1.0 
</DataArray>
</Points>
<Cells>
<DataArray type="Int64" Name="connectivity" format="ascii">
1 3 2 0 4 5 6 7 
</DataArray>
<DataArray type="Int64" Name="offsets" format="ascii">
8
</DataArray>
<DataArray type="UInt8" Name="types" format="ascii" RangeMin="12" RangeMax="12">
12
</DataArray>
</Cells>
</Piece>
</UnstructuredGrid>
</VTKFile>
