<?xml version="1.0"?>
<VTKFile type="UnstructuredGrid" version="0.1" byte_order="LittleEndian" compressor="vtkZLibDataCompressor">
<UnstructuredGrid>
<Piece NumberOfPoints="8" NumberOfCells="1">
<PointData>
<DataArray type="Float64" Name="displacement" NumberOfComponents="3" format="ascii" >
0.0146301913124 -0.00896186860915 0.0 
0.0223900954073 -0.00788516780242 0.0 
0.0135534905057 -0.00120196451426 0.0 
0.0213133946006 -0.000125263707532 0.0 
0.0223900954073 -0.00788516780242 0.0129204096807 
0.0213133946006 -0.000125263707532 0.0129204096807 
0.0135534905057 -0.00120196451426 0.0129204096807 
0.0146301913124 -0.00896186860915 0.0129204096807 
</DataArray>
<DataArray type="Float64" Name="stresses" NumberOfComponents="6" format="ascii" >
-80.0 -80.0 -240.0 -6.16317326396e-14 -3.36354551331e-14 -5.36789712647e-14  
-80.0 -80.0 -240.0 1.28021363222e-14 5.73088292252e-16 -5.07700256885e-14  
-80.0 -80.0 -240.0 2.9570090539e-14 -3.01580307893e-14 -3.74581767202e-14  
-80.0 -80.0 -240.0 -4.95762636707e-15 -1.29469229783e-14 -8.58801346318e-15  
-80.0 -80.0 -240.0 -3.1480661742e-14 -2.96588024865e-14 5.18075393222e-14  
-80.0 -80.0 -240.0 3.64043010192e-14 2.5902241762e-15 1.58436314555e-14  
-80.0 -80.0 -240.0 -3.49035601046e-14 1.51018879259e-14 4.38913158396e-14  
-80.0 -80.0 -240.0 5.3875868767e-14 7.18608102784e-14 1.44967177737e-14  
</DataArray>
</PointData>
<CellData>
</CellData>
<Points>
<DataArray type="Float64" Name="Points" NumberOfComponents="3" format="ascii">
0.0 1.0 0.0 
0.0 0.0 0.0 
1.0 1.0 0.0 
1.0 0.0 0.0 
0.0 0.0 1.0 
1.0 0.0 1.0 
1.0 1.0 1.0 
0.0 1.0 1.0 
</DataArray>
</Points>
<Cells>
<DataArray type="Int64" Name="connectivity" format="ascii">
1 3 2 0 4 5 6 7 
</DataArray>
<DataArray type="Int64" Name="offsets" format="ascii">
8
</DataArray>
<DataArray type="UInt8" Name="types" format="ascii" RangeMin="12" RangeMax="12">
12
</DataArray>
</Cells>
</Piece>
</UnstructuredGrid>
</VTKFile>
