<?xml version="1.0"?>
<VTKFile type="UnstructuredGrid" version="0.1" byte_order="LittleEndian" compressor="vtkZLibDataCompressor">
<UnstructuredGrid>
<Piece NumberOfPoints="8" NumberOfCells="1">
<PointData>
<DataArray type="Float64" Name="displacement" NumberOfComponents="3" format="ascii" >
0.0203051747022 -0.0041335433067 0.0 
0.0276459724873 -0.00322745682834 0.0 
0.0193990882239 0.00320725447839 0.0 
0.026739886009 0.00411334095675 0.0 
0.0276459724873 -0.00322745682834 0.0108730377403 
0.026739886009 0.00411334095675 0.0108730377403 
0.0193990882239 0.00320725447839 0.0108730377403 
0.0203051747022 -0.0041335433067 0.0108730377403 
</DataArray>
<DataArray type="Float64" Name="stresses" NumberOfComponents="6" format="ascii" >
-90.0 -90.0 -270.0 -5.75080780196e-14 -4.06477461931e-14 -6.93516935643e-14  
-90.0 -90.0 -270.0 2.4815656453e-14 1.84204818736e-14 -2.64247713906e-14  
-90.0 -90.0 -270.0 5.23811819204e-14 -4.8980488339e-14 -2.9402005075e-14  
-90.0 -90.0 -270.0 1.27556913404e-14 -9.82594502519e-15 1.24091153683e-14  
-90.0 -90.0 -270.0 -8.7409495204e-14 -5.04920914502e-14 3.44637352116e-14  
-90.0 -90.0 -270.0 1.08946505907e-14 2.93387342251e-14 6.09757016565e-15  
-90.0 -90.0 -270.0 -5.40050102748e-14 8.92513777146e-15 7.33165652887e-14  
-90.0 -90.0 -270.0 3.20075575881e-14 2.72510004569e-14 1.9407195293e-14  
</DataArray>
</PointData>
<CellData>
</CellData>
<Points>
<DataArray type="Float64" Name="Points" NumberOfComponents="3" format="ascii">
0.0 1.0 0.0 
0.0 0.0 0.0 
1.0 1.0 0.0 
1.0 0.0 0.0 
0.0 0.0 1.0 
1.0 0.0 1.0 
1.0 1.0 1.0 
0.0 1.0 1.0 
</DataArray>
</Points>
<Cells>
<DataArray type="Int64" Name="connectivity" format="ascii">
1 3 2 0 4 5 6 7 
</DataArray>
<DataArray type="Int64" Name="offsets" format="ascii">
8
</DataArray>
<DataArray type="UInt8" Name="types" format="ascii" RangeMin="12" RangeMax="12">
12
</DataArray>
</Cells>
</Piece>
</UnstructuredGrid>
</VTKFile>
