<?xml version="1.0"?>
<VTKFile type="UnstructuredGrid" version="0.1" byte_order="LittleEndian" compressor="vtkZLibDataCompressor">
<UnstructuredGrid>
<Piece NumberOfPoints="8" NumberOfCells="1">
<PointData>
<DataArray type="Float64" Name="displacement" NumberOfComponents="3" format="ascii" >
0.00380898251332 0.000117519266922 0.0 
0.000800813340132 0.00161019484085 0.0 
0.0023163069394 -0.00289064990627 0.0 
-0.000691862233791 -0.00139797433235 0.0 
0.000800813340132 0.00161019484085 0.0179121068871 
-0.000691862233791 -0.00139797433235 0.0179121068871 
0.0023163069394 -0.00289064990627 0.0179121068871 
0.00380898251332 0.000117519266922 0.0179121068871 
</DataArray>
<DataArray type="Float64" Name="stresses" NumberOfComponents="6" format="ascii" >
-50.0 -50.0 -150.0 2.73071752102e-14 -2.43873970052e-15 -9.54236587744e-15  
-50.0 -50.0 -150.0 4.68525493523e-15 3.03611616902e-14 1.10698452441e-15  
-50.0 -50.0 -150.0 5.28334563114e-14 -2.99551789946e-14 -2.32702718263e-14  
-50.0 -50.0 -150.0 6.8461671995e-14 -3.27612998458e-14 3.29817651836e-14  
-50.0 -50.0 -150.0 -4.10485465675e-15 9.93307020463e-15 -1.69873598264e-14  
-50.0 -50.0 -150.0 -6.4650227221e-14 2.80558915999e-14 -5.16117782055e-14  
-50.0 -50.0 -150.0 -2.90777073842e-14 5.29691008593e-14 7.87317327649e-14  
-50.0 -50.0 -150.0 -1.24867911646e-14 -1.31453386602e-14 6.32102363971e-14  
</DataArray>
</PointData>
<CellData>
</CellData>
<Points>
<DataArray type="Float64" Name="Points" NumberOfComponents="3" format="ascii">
0.0 1.0 0.0 
0.0 0.0 0.0 
1.0 1.0 0.0 
1.0 0.0 0.0 
0.0 0.0 1.0 
1.0 0.0 1.0 
1.0 1.0 1.0 
0.0 1.0 1.0 
</DataArray>
</Points>
<Cells>
<DataArray type="Int64" Name="connectivity" format="ascii">
1 3 2 0 4 5 6 7 
</DataArray>
<DataArray type="Int64" Name="offsets" format="ascii">
8
</DataArray>
<DataArray type="UInt8" Name="types" format="ascii" RangeMin="12" RangeMax="12">
12
</DataArray>
</Cells>
</Piece>
</UnstructuredGrid>
</VTKFile>
