<?xml version="1.0"?>
<VTKFile type="UnstructuredGrid" version="0.1" byte_order="LittleEndian" compressor="vtkZLibDataCompressor">
<UnstructuredGrid>
<Piece NumberOfPoints="218" NumberOfCells="192">
<PointData>
<DataArray type="Float64" Name="displacement" NumberOfComponents="3" format="ascii" >
0.0686945570064 -0.00915576263432  0.
0.0396930007709 -0.0625409911083  0.
0.0745536245462 -0.0126863280423  0.
0.0748792723833 -0.0173931549972  0.
0.0729511186721 -0.0225821472697  0.
0.0696025288467 -0.0281066047071  0.
0.0652609679868 -0.033884680497  0.
0.0602631427127 -0.0398219506671  0.
0.054902952479 -0.0457998276533  0.
0.049458101857 -0.0516724554487  0.
0.0442268593651 -0.0572767850949  0.
0.0355677379305 -0.092579563589  0.
0.0397559297946 -0.0676569382358  0.
0.0395258633788 -0.0721135967351  0.
0.0391756744667 -0.0760134559483  0.
0.038761479653 -0.0794207840981  0.
0.0383115741491 -0.0823917319707  0.
0.0378413313 -0.0849801133064  0.
0.0373532619066 -0.0872288612632  0.
0.0368403286475 -0.0891839559825  0.
0.0362795543144 -0.0909189017375  0.
0.0480097159461 -0.0702310044719  0.
0.0366094825316 -0.0915175133493  0.
0.0378296917256 -0.0901425630355  0.
0.0391694668176 -0.0885027313476  0.
0.0405369747175 -0.0866091493338  0.
0.0418633653404 -0.084471317214  0.
0.0431573184537 -0.0820738830453  0.
0.044432960424 -0.0794187513292  0.
0.0456807683168 -0.0765333760664  0.
0.0468802711934 -0.0734555663228  0.
0.0538364415662 -0.0677512465042  0.
0.0594991192586 -0.0646055384931  0.
0.0647024547917 -0.0606565393914  0.
0.0691565245544 -0.0557688676965  0.
0.0726378763988 -0.0498861870293  0.
0.0750109551693 -0.0430665229758  0.
0.0761253441144 -0.0354887967208  0.
0.0757508954842 -0.0274196505978  0.
0.0735538262063 -0.0189809046689  0.
0.0758616138144 -0.0221943558033  0.
0.0760065694959 -0.0308638138295  0.
0.0750783827366 -0.0390492794564  0.
0.0731824037465 -0.0466264089203  0.
0.0703910532634 -0.0533862747236  0.
0.0667962810866 -0.059235047021  0.
0.062461165723 -0.064106521179  0.
0.0575468625975 -0.0680276828991  0.
0.0522745396731 -0.0711038320565  0.
0.0750338997639 -0.0265565960419  0.
0.0742894935091 -0.0350979712685  0.
0.0727639921237 -0.043138186319  0.
0.0704947530714 -0.0505170531151  0.
0.0675480141294 -0.0570751379043  0.
0.0640093504598 -0.0627703465332  0.
0.0599155854888 -0.0675307771041  0.
0.0553788891208 -0.0713548895576  0.
0.0505705471762 -0.0743225500021  0.
0.0726163133802 -0.0314627249646  0.
0.0714473919931 -0.0397634993117  0.
0.0696196782865 -0.0475215792618  0.
0.067200900819 -0.0545889207093  0.
0.064260098688 -0.0608479418791  0.
0.0608946105638 -0.0662940228543  0.
0.0571362686897 -0.0708644691214  0.
0.0530525653787 -0.0745343765941  0.
0.048768212168 -0.0773604090986  0.
0.0690444087519 -0.0366939030668  0.
0.0677194013842 -0.0446755174515  0.
0.0658160662919 -0.0520572791652  0.
0.0634281464189 -0.0587291726783  0.
0.0606369268372 -0.0646159285236  0.
0.0575438634097 -0.0697335207719  0.
0.0541951311126 -0.0740437165518  0.
0.0506247835336 -0.0775126423015  0.
0.0469089835354 -0.0801725044611  0.
0.0646385546529 -0.0421115130295  0.
0.0633324327986 -0.0496878295085  0.
0.0615245867692 -0.0566161770778  0.
0.0593194649496 -0.0628282395299  0.
0.0568046205406 -0.0682869294298  0.
0.0540753545268 -0.073018634484  0.
0.0511842016126 -0.0770107505536  0.
0.0481571683482 -0.0802399754249  0.
0.0450296778029 -0.0827194510688  0.
0.0596829805562 -0.0475881907464  0.
0.0585196209065 -0.0546698018713  0.
0.0569330910057 -0.0610773808688  0.
0.0550261134238 -0.066779029375  0.
0.0528850192213 -0.0717681683969  0.
0.0505930403871 -0.0760799368805  0.
0.0481963224902 -0.0797207468964  0.
0.0457138474187 -0.0826834767078  0.
0.0431573229397 -0.0849776792518  0.
0.0544447053712 -0.0529942790544  0.
0.0535110534236 -0.0594989730772  0.
0.0522287814994 -0.0653306850589  0.
0.0506911681517 -0.0704845809398  0.
0.0489785828118 -0.0749772965743  0.
0.0471604863192 -0.0788521865271  0.
0.0452725807536 -0.0821311903513  0.
0.0433213436749 -0.0848235788395  0.
0.0412955037278 -0.0869438436708  0.
0.0491871020828 -0.0581993306589  0.
0.0485353302718 -0.0640655124888  0.
0.0475942586923 -0.0692824773235  0.
0.0464529032101 -0.0738649712434  0.
0.0451839537157 -0.0778486558384  0.
0.0438426487008 -0.081283987274  0.
0.0424537868938 -0.0842056316903  0.
0.0410140337252 -0.0866396162199  0.
0.039491068253 -0.0886132204373  0.
0.0441933367857 -0.0630940950809  0.
0.0438146585708 -0.0682867157671  0.
0.0432002350459 -0.0728605225283  0.
0.0424421723617 -0.0768592098665  0.
0.0416003873696 -0.0803326171102  0.
0.0407142489554 -0.0833362729315  0.
0.0397981577765 -0.0859130516103  0.
0.0388448320731 -0.0881025976372  0.
0.037817150467 -0.0899573979966  0.
0.0500328391938 -0.0635377027762  0.
0.0490612818928 -0.0669012406288  0.
0.0698873748361 -0.0147148693531  0.
0.0691808765279 -0.0122331669333  0.
0.0740462401006 -0.0217071419468  0.
0.0766249631394 -0.0282947266082  0.
0.0777584766363 -0.0347353549832  0.
0.0772521498234 -0.0408122199253  0.
0.0751706327234 -0.0462895445215  0.
0.0717172399713 -0.0509862611936  0.
0.0671635894905 -0.0549084518925  0.
0.0617999057755 -0.0581888503344  0.
0.0559474031396 -0.0610152580291  0.
0.0549806281607 -0.0644278509062  0.
0.06076424931 -0.0614428358565  0.
0.0660638594825 -0.0578212513213  0.
0.0705503328803 -0.0534050185629  0.
0.0739728749567 -0.0480919182343  0.
0.0761732560181 -0.0419057021819  0.
0.0770031526901 -0.0350422244388  0.
0.0763310598503 -0.0278020898464  0.
0.0739480671521 -0.0203518551902  0.
0.0 0.0  0.
0.0 0.0406489403746  0.
0.0 0.0174728268321  0.
0.0318324415107 0.0245653215277  0.
0.0534729299416 0.00793617202743  0.
0.0424186982671 -0.00700309467743  0.
0.0619485839987 -0.00979624269608  0.
0.0375420021083 0.00943016814738  0.
0.0581598942178 -0.00126376347642  0.
0.0 0.0  0.
0.0 0.0  0.
0.0 0.0  0.
0.0 0.0  0.
0.0 0.0  0.
0.0 0.0  0.
0.0 0.0  0.
0.0 0.0  0.
0.0 0.0  0.
0.0 0.0  0.
0.0430695270827 -0.0542953440649  0.
0.0277468900744 -0.0349562794987  0.
0.0364127830816 -0.031627311118  0.
0.0508352141846 -0.0509141259064  0.
0.0425961535013 -0.0301671824317  0.
0.0576211257593 -0.0482577359955  0.
0.0478773094925 -0.0288400101465  0.
0.0635292544902 -0.04562133393  0.
0.0523125222419 -0.0273967236739  0.
0.068506017523 -0.0425485071613  0.
0.0557221171886 -0.0256834791584  0.
0.0722398993523 -0.0388375127072  0.
0.0578018849406 -0.0235805025937  0.
0.074351552775 -0.0343799336923  0.
0.0582517066997 -0.0211416710524  0.
0.0745393086426 -0.0293317508002  0.
0.0567174022951 -0.0182121901055  0.
0.0726252470781 -0.0237484144449  0.
0.0525001084972 -0.0143743681251  0.
0.0683520346338 -0.0173061517497  0.
0.0 -0.0990595212314  0.
0.0 -0.0114498639347  0.
0.0 -0.0223018339688  0.
0.0 -0.0325560753517  0.
0.0 -0.0422221818177  0.
0.0 -0.0513083857675  0.
0.0 -0.0598348099235  0.
0.0 -0.0678161938869  0.
0.0 -0.0752329994348  0.
0.0 -0.0820647099469  0.
0.0 -0.0883035572516  0.
0.0 -0.0939628082337  0.
0.0214356154021 -0.0929564244283  0.
0.0316546187881 -0.0937061120893  0.
0.0270445692285 -0.0418222262859  0.
0.0263816269638 -0.048278056874  0.
0.0257823681354 -0.0543254623956  0.
0.0252207623471 -0.0599971381608  0.
0.024707206594 -0.0652927122662  0.
0.0243045772187 -0.0701833167224  0.
0.0238669746959 -0.0747716631279  0.
0.0233444394295 -0.0790727426813  0.
0.0227659401929 -0.083054383966  0.
0.0222008483153 -0.0866880264394  0.
0.0217502144456 -0.0899701015168  0.
0.0419064835708 -0.0591298193796  0.
0.040920644451 -0.0635734411983  0.
0.0399455318698 -0.0677865064985  0.
0.0389629302876 -0.0717652487663  0.
0.0379903376079 -0.0754794328256  0.
0.0370510790077 -0.0788964035226  0.
0.0361338512238 -0.0820169726695  0.
0.0351400786862 -0.0848972224206  0.
0.0340725113791 -0.0875289182759  0.
0.0330259167248 -0.089877210964  0.
0.032121881089 -0.0919293978974  0.
</DataArray>
<DataArray type="Float64" Name="stresses" NumberOfComponents="4" format="ascii" >
-124860.517873 -74180.5411047 -98415.4513721 24554.1194293  
-68819.5766459 -69947.272177 -67995.7559232 3513.99204399  
54577.6227769 69683.095903 61796.6010419 35737.0661269  
16061.318694 18696.1056444 17116.2858255 25768.5593718  
22545.5998712 18129.1766157 19930.6404785 18650.7282121  
25098.4658955 16598.4340479 20431.4809722 12539.0580664  
18870.2897787 8283.75561722 13305.482244 8244.56000444  
6954.68579844 -4123.53395062 1387.26440543 5253.58550664  
-7308.41348814 -17295.9454277 -12056.1358688 3262.22461845  
-19842.0405544 -26899.4684362 -22903.3394054 2220.0490969  
-35966.3286743 -38329.0065875 -36404.7142783 2959.84722979  
-41266.8583017 -67795.9589691 -53440.7804627 -246.805066076  
-53645.1137701 -58171.2669034 -54790.02653 2881.16491842  
-57890.9241864 -68274.9568204 -61821.2816933 859.441806877  
-62683.7761985 -75822.0409412 -67867.8503985 -648.145274989  
-62885.9930438 -77422.6885245 -68751.2539684 -1516.29720428  
-60321.3836123 -75534.8409632 -66569.550042 -1836.69561878  
-56243.3953346 -71819.8239221 -62750.9774358 -1734.65388948  
-51937.3262607 -67926.908429 -58733.474998 -1275.20629493  
-48445.0380755 -65294.4505584 -55732.3494306 -342.37201551  
-40489.4845971 -59745.6045366 -49115.1936755 1490.24629002  
-76495.5526765 -142780.766485 -107912.651718 689.178157437  
18658.9936368 -14299.4649321 2136.16906529 -1955.13068264  
10698.8826295 -29497.0473477 -9211.10071191 -3518.30688266  
6150.97949322 -40661.3155121 -16910.0646493 -4209.90038705  
146.635521368 -52988.2360722 -25892.218049 -4108.36993061  
-7967.32141979 -65937.0157737 -36253.3870676 -3435.79910127  
-18550.8907207 -78767.4214527 -47793.3495617 -2542.31014345  
-31622.2177301 -93930.4133532 -61704.7731871 -1697.20242821  
-45972.3775 -110020.414495 -76713.1944134 -859.326812115  
-60811.1592304 -126186.890123 -92001.5424518 -46.9004996646  
-99453.8974083 -165322.330125 -130282.182156 1028.64508846  
-101357.228358 -165749.855383 -131352.710383 2400.15693069  
-102482.635924 -163838.208829 -130800.475788 4541.7811346  
-103700.23355 -160225.295873 -129358.60142 7915.15933646  
-108911.46903 -153420.139747 -128542.698958 11740.8682624  
-123354.076318 -152231.170591 -135036.770986 15864.7988144  
-146346.210275 -157315.729885 -148793.042045 20178.2439801  
-182293.287114 -171764.236718 -173458.652369 25589.7106476  
-229985.1732 -196945.82304 -210286.776768 27043.125953  
36980.4929577 46670.2076317 41502.7829009 29136.8367461  
-27529.229548 -34115.8715895 -30259.4237406 24993.8320174  
-50177.7410365 -72508.3204034 -60121.0539921 20145.2185188  
-59530.8449014 -95681.4845191 -76054.041416 15115.3474232  
-61924.2040581 -110470.336608 -84472.2897035 10820.4315184  
-67424.1845277 -124789.469428 -94234.9689978 7011.97880032  
-73006.700192 -134262.58013 -101792.809842 3871.55280585  
-77132.9069831 -140931.490226 -107210.605171 1779.94978211  
-79768.2618359 -144808.545606 -110470.026132 402.772056487  
-14022.9857064 -18917.3095582 -16152.0792344 23379.8118337  
-37192.6932141 -55897.595162 -45614.2413043 18973.1651891  
-47355.6992995 -78099.8230827 -61473.2059673 15362.2238829  
-50140.4930917 -91833.5679958 -69567.2899329 11733.7135554  
-50974.3416632 -102437.008308 -75169.7335496 8316.13909415  
-54232.9686776 -112109.779043 -81558.6521171 5208.29079402  
-58685.7115003 -119589.332622 -87532.0604388 2681.7589426  
-62166.2033612 -125053.910561 -92010.3942569 922.162840661  
-65041.9975433 -128877.730477 -95345.5201319 -254.881979372  
-20926.8961823 -33839.4613886 -26835.5152097 16466.3995669  
-31430.8711603 -56806.6215571 -43236.3714315 14367.7756726  
-35892.7659438 -71532.8844643 -52638.5687 11806.8205863  
-37714.3143493 -82412.5850381 -58862.1806999 8934.65814512  
-39080.389902 -91479.7351638 -63974.4612822 6136.00888405  
-40832.324571 -98397.9822715 -68255.2387628 3644.03693226  
-44393.4902023 -104396.000269 -73022.5265312 1613.32019989  
-47718.6170981 -109228.561786 -77087.612687 170.561891227  
-50822.0308035 -113035.601045 -80511.839216 -817.058888226  
-17752.2561097 -34568.6979111 -25637.2674702 11520.0003572  
-23875.1162785 -52463.4108505 -37405.8782932 10398.8420965  
-25605.4870248 -63373.1275488 -43599.5211411 8607.43446767  
-26395.3330452 -71808.9983368 -48120.1223772 6410.13691649  
-28108.770645 -79643.5232071 -52798.6239875 4235.272016  
-28893.3075623 -84882.7021563 -55761.5325199 2291.32155814  
-31091.6460632 -89592.6932668 -59188.3156715 705.080619935  
-34117.1521639 -93794.4993545 -62777.0431943 -462.063833313  
-37341.2005708 -97546.5244784 -66222.2313848 -1291.78118184  
-12476.197096 -30590.0080003 -21102.4404972 7816.76383887  
-16046.4743879 -45139.6681609 -29981.2098489 7150.44514544  
-16739.3325974 -54079.8524948 -34701.4006952 5877.47016774  
-17063.1708857 -60884.7059547 -38194.4596518 4257.67634194  
-18591.6038803 -67274.17368 -42074.2310046 2659.2111884  
-19040.7168964 -71190.3657936 -44213.2305181 1229.92003573  
-19976.8277676 -74785.7964168 -46439.2640145 7.65798721493  
-22202.6649424 -78882.607927 -49552.4561202 -930.193078364  
-25195.9367768 -82768.6306089 -52940.0259001 -1679.2783653  
-6609.49205314 -23954.3436718 -14976.2795052 5146.7475321  
-9125.81425594 -36431.8086472 -22323.2352226 4657.58679454  
-9579.22426479 -44189.8099777 -26346.8267788 3705.8602834  
-9831.14692956 -49888.967651 -29262.8561445 2507.77180639  
-11016.5960365 -54900.3109182 -32299.2844078 1359.56692461  
-11399.786988 -57809.4602221 -33912.531133 366.326730267  
-11751.9403408 -60047.5152045 -35181.7332172 -490.541987264  
-13127.0611356 -63046.4060305 -37324.9989114 -1205.22603455  
-14649.7341035 -65976.7072626 -39506.9562694 -1878.53833635  
-1306.40618208 -16066.5130986 -8512.73044754 3389.51136113  
-3889.73337663 -27451.2512141 -15357.0824494 2935.29098748  
-4087.45784716 -34031.1655253 -18678.1254525 2136.02831425  
-3890.79419793 -38371.0203558 -20708.2891313 1187.69136469  
-4494.1811128 -41963.701812 -22764.3626332 334.345052016  
-4535.7206926 -43861.3551031 -23714.5671399 -341.895874583  
-4133.85609349 -44850.5914422 -24002.3792925 -870.498872754  
-3935.32966229 -46097.4437597 -24516.0589768 -1288.39618301  
-3540.98729937 -47521.1294081 -25020.4371867 -1734.33033193  
602.672099043 -9971.32803722 -4590.64140971 2604.93288384  
-1356.87803605 -19669.0831279 -10302.7209703 2047.45985052  
418.275945532 -23420.9343157 -11271.3026014 1212.92404734  
1511.57367877 -26037.2089363 -12017.5612762 346.793905827  
1660.90758464 -28173.4323571 -12991.1371385 -336.580582712  
2113.3776513 -29077.5635622 -13212.4510963 -779.719305433  
3293.42991439 -28976.956534 -12584.9280436 -1006.14204674  
5657.06794125 -28047.9399103 -10971.5272649 -1032.92918408  
7972.05331004 -28158.8731761 -9891.54173439 -989.819746497  
-8152.46359071 -13680.1389308 -10697.9752355 3103.7581183  
928.524091018 -11476.6938891 -5168.60320105 2021.92650116  
5768.40069154 -11186.4075957 -2654.82338302 871.252199808  
7581.51271744 -12148.2827639 -2237.71732277 -50.4028581351  
7931.82175816 -13389.8801831 -2674.44862822 -635.096515759  
8245.85488485 -13994.6597651 -2816.91439132 -890.508129811  
9336.30056481 -13700.3724012 -2138.39519983 -847.727696148  
12558.9038021 -11739.7589782 401.380963709 -452.554836626  
21434.9538354 -5666.91539348 7726.33883652 314.122901528  
-105047.863716 -171939.637752 -136334.820296 1504.66475369  
-85651.5652327 -152451.052166 -117192.210902 1249.50644043  
50740.6138288 105086.096114 76495.0555098 16426.5073536  
16387.1026847 74008.9575094 44455.7094567 17102.7025229  
-55831.0204992 -13913.0586084 -34344.6632047 21159.2856179  
-70016.2056782 -47290.5346773 -57480.3027742 21851.6399999  
-86070.8312829 -85153.9447996 -83900.1402804 20635.4552664  
-93217.0658596 -114538.108971 -101800.035667 18549.9303948  
-96556.2876911 -137852.802232 -114850.018496 15557.5342779  
-103073.550923 -157667.980283 -127889.208951 11344.2020592  
-110496.348003 -171509.298294 -138587.57749 7464.75905582  
-119532.50077 -184516.450728 -149588.894174 4408.46199299  
-133393.18621 -200160.729876 -164184.059258 2410.81469102  
-114928.415811 -181455.472976 -145868.494491 1588.6521373  
-114126.987828 -179150.323135 -144258.937909 2703.48452565  
-112458.796696 -174236.161454 -140827.898738 4540.95097429  
-110552.605797 -167322.712222 -136174.064875 7540.99327639  
-110238.063314 -153245.473224 -129106.932903 10794.9727044  
-111371.702248 -136669.970148 -121540.419474 14374.6719586  
-110384.722885 -115970.921904 -110914.265947 18183.4686102  
-117534.474059 -101414.132261 -107284.772981 21711.4310267  
-161799.566264 -122707.734288 -139919.891105 22778.7336557  
-304795.909055 -284853.23711 -288805.900584 14204.2755696  
-143832.354996 -98859.7459974 -118920.133026 6736.37289737  
-318235.839504 -271785.193442 -289106.529295 7584.05742068  
-67942.9309382 -12653.406486 -39615.1779795 4590.63457562  
-52576.1300393 11657.8060451 -20317.9993727 7316.78239025  
-298725.003092 -245117.038899 -266844.004647 11375.7959021  
-142692.990863 -84569.71927 -111765.826813 12839.7879985  
-183999.655906 -124325.781544 -151298.685952 7398.92928837  
-112421.37432 -48735.0280937 -79332.6720303 9746.08096742  
-613657.002339 -657470.61568 -623653.260471 10084.5666474  
-680470.390472 -705140.936214 -678949.550076 15558.150511  
-646491.531385 -670482.654186 -645317.35093 18018.3234699  
-616034.285066 -639147.650501 -615039.148428 20091.9383556  
-582749.563896 -604880.131728 -581942.332483 21811.4076665  
-543045.244598 -564154.246475 -542502.666007 23234.0774007  
-494494.120328 -514239.56041 -494250.344525 24083.3665799  
-438202.838107 -456312.20449 -438313.751588 24181.8180026  
-370829.181649 -387167.251288 -371418.252139 23644.1711092  
-282713.445797 -297241.449477 -284177.898685 22088.5459403  
-185347.402682 -252236.271666 -215412.986316 2909.80744975  
-322328.571069 -384541.467518 -347234.509883 5351.37412598  
-296321.169566 -350328.71981 -317039.368316 9482.14091585  
-182213.067493 -246013.560675 -210619.101977 4468.49098606  
-313059.360162 -359910.966337 -329703.893983 13214.5255657  
-172438.033777 -232281.468143 -198832.960477 7469.07713061  
-317480.299508 -359073.576412 -331474.960185 16527.271164  
-174285.976566 -229666.222143 -198223.825969 11496.4468592  
-320157.148822 -356116.064548 -331357.606594 19374.4325164  
-177808.431677 -226541.224957 -198151.126138 16059.7175416  
-324032.901458 -353016.273085 -331801.682875 21379.3750148  
-185750.395455 -221432.991562 -199519.749271 19405.5719362  
-328980.646143 -349638.374678 -332577.731705 22449.3301901  
-196189.264205 -215202.107808 -201581.772287 21051.7486541  
-337786.934657 -348513.649966 -336284.710015 22341.205525  
-206066.008008 -206123.151945 -201972.688377 20769.3186698  
-355040.534371 -352845.150741 -346863.985705 20438.0610949  
-213236.488836 -191964.289838 -198548.38155 18939.1036621  
-396109.275415 -369843.067835 -375294.746341 16605.0697267  
-195519.47506 -151909.205941 -170316.985283 16325.4596957  
10008.937458 -30686.3032305 -10131.9092285 2934.61188738  
-464561.660616 -524741.89689 -486165.412031 7676.4958728  
-419793.947603 -479230.901958 -441552.737664 6884.15784591  
-373968.360162 -432656.980313 -395941.711531 6175.91659952  
-328192.142967 -386126.51735 -350419.064291 5548.85050746  
-282769.125581 -339962.333286 -305296.155845 5009.37109473  
-236880.782742 -292738.516975 -259533.595958 4543.65926603  
-192010.1409 -245417.437884 -214339.513604 4086.67338895  
-147179.62903 -197771.302851 -169025.956622 3679.80918603  
-102230.340629 -149917.763136 -123552.570845 3348.65452502  
-57199.8348426 -102022.778821 -78019.0806952 3108.10050364  
-10812.0142997 -52929.1271309 -31233.159301 2970.20087249  
8545.89517326 -31252.5815364 -11126.276318 116.898796219  
-9826.5291012 -44830.1846365 -26781.7897315 -1497.80556345  
-310845.183877 -373898.279048 -336684.014319 4637.76036189  
-275947.600168 -337809.618481 -301584.202045 3754.82308986  
-242786.282661 -303464.625667 -268236.941058 2960.79709341  
-210519.691109 -270052.786486 -235824.521165 2236.52314582  
-179039.027895 -237330.515843 -204157.122887 1676.37406351  
-148242.132334 -204945.83106 -173066.035266 1136.20688075  
-118030.57574 -172021.528107 -142124.216496 494.537235558  
-88292.1943553 -139424.3765 -111581.119719 -99.7012574741  
-59139.5761641 -107032.826025 -81424.4770728 -474.200891981  
-30384.2437587 -74830.9482274 -51555.4440732 -473.370578844  
-2756.66497984 -44051.6296292 -22936.0643584 -154.274558215  
-177914.880088 -244486.080423 -207925.079624 2524.66181271  
-157584.802755 -222399.22766 -186916.860505 1679.51554813  
-138545.836545 -202097.516721 -167472.959236 718.108343146  
-119368.98523 -181529.054269 -147841.80123 -301.827551134  
-99538.0083646 -160077.353418 -127465.359859 -1300.21716112  
-80471.28477 -139279.022361 -107792.918719 -2274.61958457  
-61627.8236255 -118427.210678 -88232.6401629 -3274.4332766  
-44216.8297221 -96905.0875809 -69149.7840172 -4135.07653419  
-27254.3158953 -75429.8764061 -50315.2542277 -4606.68794366  
-10351.8392916 -53538.6318595 -31306.3308641 -4376.31117371  
3743.74846746 -34450.8393584 -15046.4745365 -2906.26966647  
</DataArray>
<DataArray type="Float64" Name="equivalent_strain" NumberOfComponents="1" format="ascii" >
0.00124511906867  
0.0  
0.00104340303555  
0.000129057787418  
0.0  
0.0  
0.0  
0.0  
0.0  
0.0  
0.0  
0.0  
0.0  
0.0  
0.0  
0.0  
0.0  
0.0  
0.0  
0.0  
0.0  
0.000728795584736  
0.0  
0.0  
0.0  
0.0  
6.02715270342e-05  
0.000225336460028  
0.000390251004915  
0.000532296436057  
0.000645219311672  
0.000707284802992  
0.000594623763525  
0.000379198047866  
0.000103061111345  
0.0  
0.0  
0.0  
8.47676083676e-06  
0.000544080747014  
0.000484595293617  
8.52549519034e-05  
0.0  
0.0  
0.0  
0.000114887541872  
0.000354039490789  
0.00053636325668  
0.000633269557878  
8.79379770233e-07  
0.0  
0.0  
0.0  
0.0  
0.000103134649367  
0.000301188176119  
0.000451500329214  
0.000529269948652  
0.0  
0.0  
0.0  
0.0  
0.0  
6.53949807115e-05  
0.000210008626283  
0.000330267567021  
0.000391186748441  
0.0  
0.0  
0.0  
0.0  
0.0  
1.83561316681e-05  
8.76079780248e-05  
0.000173037897529  
0.000221421660833  
0.0  
0.0  
0.0  
0.0  
0.0  
0.0  
8.1707382615e-06  
2.98952987125e-05  
5.10815292997e-05  
0.0  
0.0  
0.0  
0.0  
0.0  
0.0  
0.0  
0.0  
0.0  
0.0  
0.0  
0.0  
0.0  
0.0  
0.0  
0.0  
0.0  
0.0  
0.0  
0.0  
0.0  
0.0  
0.0  
0.0  
0.0  
0.0  
0.0  
0.0  
0.0  
0.0  
0.0  
0.0  
0.0  
0.0  
0.0  
0.0  
0.000801909513902  
0.000787804308505  
0.000479711601271  
0.000770526220888  
0.00013357326237  
0.0  
0.0  
0.0  
1.88925073004e-05  
0.00016975547843  
0.000439016091535  
0.000652800590052  
0.000773731539969  
0.000765059887463  
0.000650429541727  
0.000413535902418  
0.000102495121481  
0.0  
0.0  
0.0  
0.0  
0.000236013406673  
0.0  
0.0  
0.0  
0.000129988586949  
0.000738080551429  
0.000193720913649  
0.000472760177083  
0.000225750420279  
0.000742702158748  
0.000259827369716  
0.0  
0.0  
0.0  
0.0  
0.0  
0.0  
0.0  
0.0  
0.0  
0.000779110659565  
0.00042082547061  
0.000107449698212  
0.000560636333919  
6.80089804858e-06  
0.000343564020905  
0.0  
0.000189430105722  
0.0  
4.9078992219e-05  
1.07936248212e-05  
0.0  
1.16704250069e-05  
0.0  
0.0  
0.0  
0.0  
0.0  
0.0  
5.51449780608e-05  
0.0  
0.000459937075982  
0.000353138005824  
0.000251751731579  
0.000155477354992  
6.34124190304e-05  
8.15299538988e-06  
0.0  
0.0  
0.0  
0.0  
0.0  
0.0  
0.0  
0.000564206563114  
0.000437183297921  
0.000320586805389  
0.000209867653843  
9.54578169142e-05  
1.45586185966e-05  
0.0  
0.0  
0.0  
0.0  
0.0  
0.000768397100035  
0.000622889247772  
0.000509757017354  
0.000389059268822  
0.000253225423361  
0.000111564205213  
1.32079977244e-05  
0.0  
0.0  
0.0  
0.0  
</DataArray>
</PointData>
<CellData>
</CellData>
<Points>
<DataArray type="Float64" Name="Points" NumberOfComponents="3" format="ascii">
45.0 30.0 0.0
35.0 40.0 0.0
44.0 31.0 0.0
43.0 32.0 0.0
42.0 33.0 0.0
41.0 34.0 0.0
40.0 35.0 0.0
39.0 36.0 0.0
38.0 37.0 0.0
37.0 38.0 0.0
36.0 39.0 0.0
25.0 40.0 0.0
34.0 40.0 0.0
33.0 40.0 0.0
32.0 40.0 0.0
31.0 40.0 0.0
30.0 40.0 0.0
29.0 40.0 0.0
28.0 40.0 0.0
27.0 40.0 0.0
26.0 40.0 0.0
25.0 30.0 0.0
25.0 39.0 0.0
25.0 38.0 0.0
25.0 37.0 0.0
25.0 36.0 0.0
25.0 35.0 0.0
25.0 34.0 0.0
25.0 33.0 0.0
25.0 32.0 0.0
25.0 31.0 0.0
27.0 30.0 0.0
29.0 30.0 0.0
31.0 30.0 0.0
33.0 30.0 0.0
35.0 30.0 0.0
37.0 30.0 0.0
39.0 30.0 0.0
41.0 30.0 0.0
43.0 30.0 0.0
42.1 31.0 0.0
40.2 31.0 0.0
38.3 31.0 0.0
36.4 31.0 0.0
34.5 31.0 0.0
32.6 31.0 0.0
30.7 31.0 0.0
28.8 31.0 0.0
26.9 31.0 0.0
41.2 32.0 0.0
39.4 32.0 0.0
37.6 32.0 0.0
35.8 32.0 0.0
34.0 32.0 0.0
32.2 32.0 0.0
30.4 32.0 0.0
28.6 32.0 0.0
26.8 32.0 0.0
40.3 33.0 0.0
38.6 33.0 0.0
36.9 33.0 0.0
35.2 33.0 0.0
33.5 33.0 0.0
31.8 33.0 0.0
30.1 33.0 0.0
28.4 33.0 0.0
26.7 33.0 0.0
39.4 34.0 0.0
37.8 34.0 0.0
36.2 34.0 0.0
34.6 34.0 0.0
33.0 34.0 0.0
31.4 34.0 0.0
29.8 34.0 0.0
28.2 34.0 0.0
26.6 34.0 0.0
38.5 35.0 0.0
37.0 35.0 0.0
35.5 35.0 0.0
34.0 35.0 0.0
32.5 35.0 0.0
31.0 35.0 0.0
29.5 35.0 0.0
28.0 35.0 0.0
26.5 35.0 0.0
37.6 36.0 0.0
36.2 36.0 0.0
34.8 36.0 0.0
33.4 36.0 0.0
32.0 36.0 0.0
30.6 36.0 0.0
29.2 36.0 0.0
27.8 36.0 0.0
26.4 36.0 0.0
36.7 37.0 0.0
35.4 37.0 0.0
34.1 37.0 0.0
32.8 37.0 0.0
31.5 37.0 0.0
30.2 37.0 0.0
28.9 37.0 0.0
27.6 37.0 0.0
26.3 37.0 0.0
35.8 38.0 0.0
34.6 38.0 0.0
33.4 38.0 0.0
32.2 38.0 0.0
31.0 38.0 0.0
29.8 38.0 0.0
28.6 38.0 0.0
27.4 38.0 0.0
26.2 38.0 0.0
34.9 39.0 0.0
33.8 39.0 0.0
32.7 39.0 0.0
31.6 39.0 0.0
30.5 39.0 0.0
29.4 39.0 0.0
28.3 39.0 0.0
27.2 39.0 0.0
26.1 39.0 0.0
25.0 28.0 0.0
25.0 29.0 0.0
45.0 28.0 0.0
45.0 29.0 0.0
43.0 28.0 0.0
41.0 28.0 0.0
39.0 28.0 0.0
37.0 28.0 0.0
35.0 28.0 0.0
33.0 28.0 0.0
31.0 28.0 0.0
29.0 28.0 0.0
27.0 28.0 0.0
27.0 29.0 0.0
29.0 29.0 0.0
31.0 29.0 0.0
33.0 29.0 0.0
35.0 29.0 0.0
37.0 29.0 0.0
39.0 29.0 0.0
41.0 29.0 0.0
43.0 29.0 0.0
75.0 0.0 0.0
75.0 30.0 0.0
75.0 15.0 0.0
57.8571428571 30.0 0.0
49.2857142857 30.0 0.0
57.8571428571 16.0 0.0
49.2857142857 24.0 0.0
57.8571428571 23.0 0.0
49.2857142857 27.0 0.0
0.0 0.0 0.0
7.5 0.0 0.0
15.0 0.0 0.0
22.5 0.0 0.0
30.0 0.0 0.0
37.5 0.0 0.0
45.0 0.0 0.0
52.5 0.0 0.0
60.0 0.0 0.0
67.5 0.0 0.0
21.4285714286 24.0 0.0
14.2857142857 16.0 0.0
18.6428571429 16.0 0.0
24.2142857143 24.0 0.0
23.0 16.0 0.0
27.0 24.0 0.0
27.3571428571 16.0 0.0
29.7857142857 24.0 0.0
31.7142857143 16.0 0.0
32.5714285714 24.0 0.0
36.0714285714 16.0 0.0
35.3571428571 24.0 0.0
40.4285714286 16.0 0.0
38.1428571429 24.0 0.0
44.7857142857 16.0 0.0
40.9285714286 24.0 0.0
49.1428571429 16.0 0.0
43.7142857143 24.0 0.0
53.5 16.0 0.0
46.5 24.0 0.0
0.0 40.0 0.0
0.0 3.33333333333 0.0
0.0 6.66666666667 0.0
0.0 10.0 0.0
0.0 13.3333333333 0.0
0.0 16.6666666667 0.0
0.0 20.0 0.0
0.0 23.3333333333 0.0
0.0 26.6666666667 0.0
0.0 30.0 0.0
0.0 33.3333333333 0.0
0.0 36.6666666667 0.0
14.2857142857 40.0 0.0
21.4285714286 40.0 0.0
14.2857142857 18.0 0.0
14.2857142857 20.0 0.0
14.2857142857 22.0 0.0
14.2857142857 24.0 0.0
14.2857142857 26.0 0.0
14.2857142857 28.0 0.0
14.2857142857 30.0 0.0
14.2857142857 32.0 0.0
14.2857142857 34.0 0.0
14.2857142857 36.0 0.0
14.2857142857 38.0 0.0
21.4285714286 25.3333333333 0.0
21.4285714286 26.6666666667 0.0
21.4285714286 28.0 0.0
21.4285714286 29.3333333333 0.0
21.4285714286 30.6666666667 0.0
21.4285714286 32.0 0.0
21.4285714286 33.3333333333 0.0
21.4285714286 34.6666666667 0.0
21.4285714286 36.0 0.0
21.4285714286 37.3333333333 0.0
21.4285714286 38.6666666667 0.0
</DataArray>
</Points>
<Cells>
<DataArray type="Int64" Name="connectivity" format="ascii">
0 2 40 39 
2 3 49 40 
3 4 58 49 
4 5 67 58 
5 6 76 67 
6 7 85 76 
7 8 94 85 
8 9 103 94 
9 10 112 103 
10 1 12 112 
39 40 41 38 
40 49 50 41 
49 58 59 50 
58 67 68 59 
67 76 77 68 
76 85 86 77 
85 94 95 86 
94 103 104 95 
103 112 113 104 
112 12 13 113 
38 41 42 37 
41 50 51 42 
50 59 60 51 
59 68 69 60 
68 77 78 69 
77 86 87 78 
86 95 96 87 
95 104 105 96 
104 113 114 105 
113 13 14 114 
37 42 43 36 
42 51 52 43 
51 60 61 52 
60 69 70 61 
69 78 79 70 
78 87 88 79 
87 96 97 88 
96 105 106 97 
105 114 115 106 
114 14 15 115 
36 43 44 35 
43 52 53 44 
52 61 62 53 
61 70 71 62 
70 79 80 71 
79 88 89 80 
88 97 98 89 
97 106 107 98 
106 115 116 107 
115 15 16 116 
35 44 45 34 
44 53 54 45 
53 62 63 54 
62 71 72 63 
71 80 81 72 
80 89 90 81 
89 98 99 90 
98 107 108 99 
107 116 117 108 
116 16 17 117 
34 45 46 33 
45 54 55 46 
54 63 64 55 
63 72 73 64 
72 81 82 73 
81 90 91 82 
90 99 100 91 
99 108 109 100 
108 117 118 109 
117 17 18 118 
33 46 47 32 
46 55 56 47 
55 64 65 56 
64 73 74 65 
73 82 83 74 
82 91 92 83 
91 100 101 92 
100 109 110 101 
109 118 119 110 
118 18 19 119 
32 47 48 31 
47 56 57 48 
56 65 66 57 
65 74 75 66 
74 83 84 75 
83 92 93 84 
92 101 102 93 
101 110 111 102 
110 119 120 111 
119 19 20 120 
31 48 30 21 
48 57 29 30 
57 66 28 29 
66 75 27 28 
75 84 26 27 
84 93 25 26 
93 102 24 25 
102 111 23 24 
111 120 22 23 
120 20 11 22 
121 133 134 122 
133 132 135 134 
132 131 136 135 
131 130 137 136 
130 129 138 137 
129 128 139 138 
128 127 140 139 
127 126 141 140 
126 125 142 141 
125 123 124 142 
122 134 31 21 
134 135 32 31 
135 136 33 32 
136 137 34 33 
137 138 35 34 
138 139 36 35 
139 140 37 36 
140 141 38 37 
141 142 39 38 
142 124 0 39 
143 145 150 148 
145 144 146 150 
148 150 151 149 
150 146 147 151 
149 151 124 123 
151 147 0 124 
152 153 164 163 
153 154 166 164 
154 155 168 166 
155 156 170 168 
156 157 172 170 
157 158 174 172 
158 159 176 174 
159 160 178 176 
160 161 180 178 
161 143 148 180 
163 164 165 162 
164 166 167 165 
166 168 169 167 
168 170 171 169 
170 172 173 171 
172 174 175 173 
174 176 177 175 
176 178 179 177 
178 180 181 179 
180 148 149 181 
162 165 133 121 
165 167 132 133 
167 169 131 132 
169 171 130 131 
171 173 129 130 
173 175 128 129 
175 177 127 128 
177 179 126 127 
179 181 125 126 
181 149 123 125 
152 163 196 183 
163 162 207 196 
162 121 122 207 
183 196 197 184 
196 207 208 197 
207 122 21 208 
184 197 198 185 
197 208 209 198 
208 21 30 209 
185 198 199 186 
198 209 210 199 
209 30 29 210 
186 199 200 187 
199 210 211 200 
210 29 28 211 
187 200 201 188 
200 211 212 201 
211 28 27 212 
188 201 202 189 
201 212 213 202 
212 27 26 213 
189 202 203 190 
202 213 214 203 
213 26 25 214 
190 203 204 191 
203 214 215 204 
214 25 24 215 
191 204 205 192 
204 215 216 205 
215 24 23 216 
192 205 206 193 
205 216 217 206 
216 23 22 217 
193 206 194 182 
206 217 195 194 
217 22 11 195 
</DataArray>
<DataArray type="Int64" Name="offsets" format="ascii">
4
8
12
16
20
24
28
32
36
40
44
48
52
56
60
64
68
72
76
80
84
88
92
96
100
104
108
112
116
120
124
128
132
136
140
144
148
152
156
160
164
168
172
176
180
184
188
192
196
200
204
208
212
216
220
224
228
232
236
240
244
248
252
256
260
264
268
272
276
280
284
288
292
296
300
304
308
312
316
320
324
328
332
336
340
344
348
352
356
360
364
368
372
376
380
384
388
392
396
400
404
408
412
416
420
424
428
432
436
440
444
448
452
456
460
464
468
472
476
480
484
488
492
496
500
504
508
512
516
520
524
528
532
536
540
544
548
552
556
560
564
568
572
576
580
584
588
592
596
600
604
608
612
616
620
624
628
632
636
640
644
648
652
656
660
664
668
672
676
680
684
688
692
696
700
704
708
712
716
720
724
728
732
736
740
744
748
752
756
760
764
768
</DataArray>
<DataArray type="UInt8" Name="types" format="ascii" RangeMin="9" RangeMax="9">
9
9
9
9
9
9
9
9
9
9
9
9
9
9
9
9
9
9
9
9
9
9
9
9
9
9
9
9
9
9
9
9
9
9
9
9
9
9
9
9
9
9
9
9
9
9
9
9
9
9
9
9
9
9
9
9
9
9
9
9
9
9
9
9
9
9
9
9
9
9
9
9
9
9
9
9
9
9
9
9
9
9
9
9
9
9
9
9
9
9
9
9
9
9
9
9
9
9
9
9
9
9
9
9
9
9
9
9
9
9
9
9
9
9
9
9
9
9
9
9
9
9
9
9
9
9
9
9
9
9
9
9
9
9
9
9
9
9
9
9
9
9
9
9
9
9
9
9
9
9
9
9
9
9
9
9
9
9
9
9
9
9
9
9
9
9
9
9
9
9
9
9
9
9
9
9
9
9
9
9
9
9
9
9
9
9
9
9
9
9
9
9
</DataArray>
</Cells>
</Piece>
</UnstructuredGrid>
</VTKFile>
