<?xml version="1.0"?>
<VTKFile type="UnstructuredGrid" version="0.1" byte_order="LittleEndian" compressor="vtkZLibDataCompressor">
<UnstructuredGrid>
<Piece NumberOfPoints="218" NumberOfCells="192">
<PointData>
<DataArray type="Float64" Name="displacement" NumberOfComponents="3" format="ascii" >
0.057747911548 -0.00879675259188  0.
0.0341253673676 -0.0542964876942  0.
0.0625041570088 -0.0118158253476  0.
0.0628409780182 -0.0158374259312  0.
0.0613428773678 -0.0202865393515  0.
0.0586280845154 -0.0250375993106  0.
0.0550838975934 -0.0300006898568  0.
0.0509978582081 -0.0350836903685  0.
0.0466098987882 -0.0401788865378  0.
0.0421437936188 -0.0451590047502  0.
0.0378442950941 -0.0498841758046  0.
0.0305763059465 -0.0786603134463  0.
0.0342017451788 -0.0585913359278  0.
0.0340310056684 -0.0623043311523  0.
0.0337584800538 -0.0655159640478  0.
0.0334267995875 -0.0682784438599  0.
0.0330547053112 -0.0706428791856  0.
0.032649631759 -0.0726635774653  0.
0.032213901811 -0.0744003043808  0.
0.0317446541104 -0.0759189513463  0.
0.031225444579 -0.0772954652206  0.
0.0405160379859 -0.060340805747  0.
0.0314309651028 -0.0777289461745  0.
0.0324487015062 -0.0765457674554  0.
0.0335820088801 -0.0751469725094  0.
0.0347554588705 -0.0735408123706  0.
0.0359129706232 -0.0717402613852  0.
0.0370120186697 -0.0697622704283  0.
0.0380232268896 -0.0676250735529  0.
0.0389367586894 -0.0653403485849  0.
0.0397641645373 -0.0629080793358  0.
0.0451636740979 -0.0585090290418  0.
0.0497250652212 -0.0560180231506  0.
0.0539501879671 -0.052768057539  0.
0.0576330501249 -0.048697240736  0.
0.0606024232687 -0.043721676855  0.
0.062687364374 -0.0378710909199  0.
0.0637141151127 -0.0313203853916  0.
0.063478932983 -0.0243139606874  0.
0.0617156059122 -0.0170468308882  0.
0.0634968602394 -0.0198536053333  0.
0.0636065085092 -0.027330963539  0.
0.0628139682424 -0.0344248027844  0.
0.0611726543277 -0.0409528157882  0.
0.0587709749353 -0.0467172719215  0.
0.0557220522805 -0.0515976507551  0.
0.0521587253854 -0.0555966516911  0.
0.0482135691612 -0.0587876408407  0.
0.0440190814053 -0.0612010633816  0.
0.0629099279188 -0.0236314591959  0.
0.0622539585405 -0.0309975455435  0.
0.0609562700221 -0.03795193496  0.
0.0590222448342 -0.0442886831016  0.
0.0565163522776 -0.0498453887824  0.
0.0535276901382 -0.0545370446703  0.
0.0501683333859 -0.0583824185989  0.
0.0465506168183 -0.0614513704633  0.
0.0427653393608 -0.0637582224571  0.
0.0609984620842 -0.0278719580694  0.
0.0599898409633 -0.0350252627322  0.
0.0584465792653 -0.0417112832097  0.
0.0564111777227 -0.0477510277254  0.
0.0539431461569 -0.0530154165846  0.
0.0511207287009 -0.0574498188117  0.
0.0480368911438 -0.0610825645632  0.
0.0447828181896 -0.0639790269702  0.
0.0414238511118 -0.0661540210936  0.
0.0581159622398 -0.03238275536  0.
0.0569929142689 -0.0392432591994  0.
0.0554064270377 -0.0455738578105  0.
0.0534240986338 -0.0512391697123  0.
0.0511129640902 -0.0561488646614  0.
0.0485445228072 -0.0602748901136  0.
0.045795448722 -0.0636535274608  0.
0.0429339447862 -0.0663470305611  0.
0.0399991785247 -0.0683768534208  0.
0.0545407176566 -0.0370320124186  0.
0.0534530581668 -0.0435188181995  0.
0.0519644573314 -0.0494253100807  0.
0.0501536500368 -0.0546608397619  0.
0.0480903273788 -0.05917228767  0.
0.0458400387582 -0.0629557703041  0.
0.0434641636078 -0.0660552491737  0.
0.0410097519482 -0.0685325920862  0.
0.0384941494791 -0.0704182945793  0.
0.0505087571576 -0.0417051217809  0.
0.0495547079693 -0.0477393634977  0.
0.0482603402161 -0.0531662038826  0.
0.046703122552 -0.0579334797801  0.
0.0449502174 -0.0620200384448  0.
0.0430598241783 -0.0654427156091  0.
0.041079445346 -0.0682530913525  0.
0.0390380652357 -0.0705144165088  0.
0.0369363142339 -0.0722655326179  0.
0.0462354789271 -0.0462909776339  0.
0.0454805430107 -0.0518044202952  0.
0.0444408304265 -0.0567103544118  0.
0.0431863378597 -0.0609858197151  0.
0.0417794759694 -0.0646351800773  0.
0.0402704764003 -0.0676921778982  0.
0.038694878361 -0.0702153261775  0.
0.0370667611312 -0.0722702805102  0.
0.0353725657629 -0.0739020076326  0.
0.0419343059522 -0.0506808316652  0.
0.0414169061269 -0.0556262510564  0.
0.0406574391309 -0.0599858016795  0.
0.0397242240879 -0.0637583859497  0.
0.0386745845883 -0.0669696945809  0.
0.0375501569571 -0.0696661741796  0.
0.0363763071652 -0.0719115816185  0.
0.0351568007789 -0.0737750091297  0.
0.0338639230314 -0.0753080748981  0.
0.0378406547705 -0.0547854206121  0.
0.0375501776955 -0.0591396952027  0.
0.0370578332668 -0.0629358758695  0.
0.0364372917813 -0.0662031637049  0.
0.0357359085154 -0.0689836842164  0.
0.0349834819704 -0.0713319818143  0.
0.0341954279302 -0.0733135246641  0.
0.0333703218077 -0.0749988608183  0.
0.0324778353976 -0.076454259028  0.
0.0418415433143 -0.0549390733863  0.
0.0412051991286 -0.0576635226724  0.
0.0586914095322 -0.0133005532411  0.
0.0581589379735 -0.0113084002036  0.
0.0620775071592 -0.0192150397527  0.
0.0642565200036 -0.024982335038  0.
0.0651787139233 -0.0305934671787  0.
0.0646706886825 -0.0358552356665  0.
0.0628109329315 -0.0405846260325  0.
0.0598156466924 -0.0446429525616  0.
0.055953576117 -0.0479846866059  0.
0.0514638795916 -0.0507255533954  0.
0.0466336494883 -0.0530048749245  0.
0.0459734449213 -0.0558056821996  0.
0.0506859239051 -0.0534268731675  0.
0.0550434015826 -0.0504240731603  0.
0.0587859946821 -0.0467027341187  0.
0.0617266848988 -0.0421611612821  0.
0.0636790757644 -0.036836463369  0.
0.0644632427529 -0.0308958663347  0.
0.0639527244163 -0.0245929826311  0.
0.0620288583824 -0.0181273411635  0.
0.0 0.0  0.
0.0 0.0342285699425  0.
0.0 0.0145195927696  0.
0.0270552096612 0.019938435234  0.
0.0451648370271 0.00548529863297  0.
0.0358487296235 -0.00627641466873  0.
0.0521217406921 -0.00890504787193  0.
0.0320481636739 0.00718053240444  0.
0.0491930515525 -0.00208867755424  0.
0.0 0.0  0.
0.0 0.0  0.
0.0 0.0  0.
0.0 0.0  0.
0.0 0.0  0.
0.0 0.0  0.
0.0 0.0  0.
0.0 0.0  0.
0.0 0.0  0.
0.0 0.0  0.
0.0357162827793 -0.0471526870969  0.
0.0225877075314 -0.0306268822243  0.
0.0301366090391 -0.0277338135059  0.
0.0421474097237 -0.0444514494106  0.
0.0355683423277 -0.0264605205889  0.
0.0479163069991 -0.0422558304258  0.
0.0402276188722 -0.0253042789803  0.
0.0530151833552 -0.0400161136265  0.
0.0441547933344 -0.0240176191534  0.
0.0573616145753 -0.0373289625214  0.
0.0471683094737 -0.0224768821086  0.
0.0606511283973 -0.0340394075443  0.
0.0490161747194 -0.0206534756962  0.
0.0625411089117 -0.0301674024104  0.
0.0494466292636 -0.0185249861152  0.
0.0627651928976 -0.0257837766587  0.
0.0481442016192 -0.0159622869325  0.
0.0611510358021 -0.0209073532004  0.
0.0445061436181 -0.0126202664807  0.
0.0574473588915 -0.015250954079  0.
0.0 -0.0849471162181  0.
0.0 -0.00959526005858  0.
0.0 -0.0187629102371  0.
0.0 -0.0275050472957  0.
0.0 -0.0358231784255  0.
0.0 -0.0436989738926  0.
0.0 -0.0511116319263  0.
0.0 -0.0580381119937  0.
0.0 -0.064457231055  0.
0.0 -0.0703542833197  0.
0.0 -0.0757262316142  0.
0.0 -0.0805865466443  0.
0.0183124599716 -0.0792223561697  0.
0.0271310103011 -0.0796659736214  0.
0.0223166752279 -0.0361014295407  0.
0.0221040160714 -0.041248546375  0.
0.021935483822 -0.0461132420881  0.
0.0217170553375 -0.0507799273936  0.
0.0214297498211 -0.0552464990114  0.
0.0210605735941 -0.0594981329375  0.
0.0206104301059 -0.0635102266134  0.
0.0200961877475 -0.0672535124733  0.
0.0195539138753 -0.0707005149682  0.
0.0190398025195 -0.0738342874987  0.
0.0186274593799 -0.0766582173334  0.
0.0349712861313 -0.0510654006985  0.
0.0344381503125 -0.0545790801365  0.
0.0339325934882 -0.0578793626284  0.
0.0333899013726 -0.061013909142  0.
0.0327436709204 -0.064022217302  0.
0.0319880764676 -0.0668865570868  0.
0.0311314621918 -0.0695805592187  0.
0.0302013337706 -0.0720740593115  0.
0.0292444038867 -0.0743397323266  0.
0.0283286372761 -0.0763583354232  0.
0.0275444251636 -0.0781260399274  0.
</DataArray>
<DataArray type="Float64" Name="stresses" NumberOfComponents="4" format="ascii" >
-110486.805619 -64458.0282156 -86383.650331 22710.0592987  
-63437.6577368 -63971.0205489 -62430.25236 3379.4982037  
53299.1778097 65793.7136222 59077.723182 32499.4300569  
16526.7060426 18323.4838791 17079.0022348 24774.2660037  
22916.9235978 18350.556502 20221.0652489 17148.5133132  
21293.5976264 13417.4535132 17008.4150584 11941.6431655  
13306.6427619 3934.48850497 8448.15432076 8279.34000588  
1475.91032357 -8046.05904555 -3219.37287377 5653.08333068  
-11277.420825 -19658.133456 -15158.4215977 3788.79812276  
-21593.7055845 -27311.3459224 -23963.4752384 2664.25677607  
-34636.6768301 -36193.0835427 -34706.5825826 3046.9261976  
-31250.3935654 -54698.9985659 -42115.2021444 -122.392901937  
-48913.966728 -52242.3407417 -49566.5906602 2766.11404362  
-52141.8976816 -60402.6070722 -55146.8073294 847.444119864  
-55439.3693851 -66070.7477315 -59539.9573872 -635.771681809  
-54192.7504979 -66157.6343058 -58971.6885538 -1545.82775301  
-50183.0767767 -63000.1469438 -55459.7796231 -1944.77057376  
-45089.1786468 -58573.3912904 -50794.6592692 -1903.53423063  
-40271.3354276 -54438.3115858 -46407.7270366 -1449.93651593  
-36594.5855467 -51757.5014681 -43292.5226373 -527.653753249  
-29987.2509644 -47349.3506753 -37894.9348034 1174.78877728  
-63472.2886251 -124110.825416 -92092.1155498 981.318887528  
14986.5374952 -13559.8274772 699.087908779 -1606.10863038  
7650.13486857 -26720.6100133 -9344.53282093 -3044.313352  
3034.90574358 -36703.2787296 -16497.5027632 -3788.19104375  
-2857.7170908 -47635.3431489 -24741.5995175 -3921.21662416  
-9785.25077466 -59166.1260131 -33786.174626 -3597.35795923  
-17633.9189095 -71116.0400705 -43487.4799002 -2925.81021894  
-26504.3757052 -83700.7815909 -54000.8361726 -2014.68870426  
-37781.282321 -96473.5784663 -65840.9756546 -956.00572824  
-50056.9142095 -109803.074444 -78446.7907133 79.4698649188  
-84125.9461083 -144645.023843 -112301.646903 1338.52900191  
-84336.2526181 -143781.458123 -111918.887841 2641.06987215  
-83979.9266336 -140730.260471 -110126.365288 4546.63473562  
-87035.6426143 -136136.346948 -109354.274886 7126.13916241  
-94450.0928818 -132899.562434 -111401.331105 10361.2543608  
-105228.482605 -130800.929161 -115654.411765 13954.4561463  
-123236.064604 -133636.572696 -125867.592277 17663.1096898  
-153111.954068 -145545.00826 -146321.400436 21479.3962295  
-200858.704074 -171790.154691 -183074.956348 25292.9175602  
24239.1385185 31943.278764 27743.5873752 26532.7597744  
-30739.6453846 -36667.8536249 -33061.7087593 22976.1238907  
-47348.459713 -66742.2201019 -55904.4331093 17789.5463126  
-53643.7852124 -84923.8412372 -67898.1369603 13681.7334921  
-55843.9345099 -97384.1293487 -75081.7512907 9894.16628387  
-57481.8572874 -107482.515079 -80832.5424595 6572.93921063  
-60378.0399749 -116514.522144 -86688.9007709 3961.69351569  
-64266.3726601 -123017.179449 -91845.5746355 2046.89176878  
-68066.999251 -127696.789592 -96051.5171541 678.480446011  
-17691.4847976 -22790.6361015 -19836.5620086 20850.4426334  
-34073.4108832 -50257.7875757 -41322.2872448 17453.1395011  
-41768.4681392 -68012.1759616 -53792.5156094 14326.2437904  
-44303.4288095 -79863.4001492 -60841.7461898 11153.3270613  
-45327.1826155 -88971.6095217 -65806.4081472 8023.26456487  
-46785.5018497 -96999.5146861 -70454.6581026 5207.44696999  
-49024.4799432 -104135.627637 -75048.3730818 2961.38917212  
-51599.8717129 -109292.513534 -78861.6287943 1263.37098235  
-55419.1574916 -113937.295965 -83039.7994335 -33.9971423376  
-20654.4817062 -32352.1255801 -25973.2375703 15392.2199285  
-28766.0888493 -50459.7105335 -38820.6416975 13680.6172048  
-31815.7242082 -61918.1098642 -45929.5786955 11434.2959414  
-33658.6618147 -71301.7105562 -51430.5824617 8859.5448985  
-34811.7745224 -78857.5435896 -55697.9658749 6235.00223966  
-36582.2104902 -85675.1878249 -59906.1251744 3867.70387594  
-38902.3939585 -91579.0437487 -63935.9044765 1969.96741969  
-40707.1519735 -95722.8840694 -66849.8344791 486.900211771  
-43236.1770388 -99489.1582576 -69936.8960537 -747.72685427  
-17899.3425303 -32606.9866463 -24748.1012965 11199.4300625  
-22543.6002356 -46643.2174186 -33901.5406505 10271.4454262  
-23771.0409361 -55285.2927615 -38737.6035118 8646.42642745  
-24731.9436769 -62500.2045003 -42743.7526068 6586.89890304  
-25857.9520138 -68701.6916067 -46334.225374 4432.55308963  
-27664.9139834 -74342.3455419 -49983.5571674 2485.67534409  
-29840.0565541 -79123.4242912 -53392.1056142 925.423319095  
-31145.3878052 -82076.5438671 -55478.7465194 -320.354347051  
-32131.3520786 -84178.5463423 -56991.8502263 -1425.24351155  
-13276.5720138 -28709.2710936 -20573.0631226 7994.78139891  
-16109.7784893 -40298.2382043 -27639.9281799 7378.21367244  
-16671.9587144 -47494.6258363 -31441.6264298 6119.47183761  
-17191.7405355 -53293.0388204 -34537.5418844 4460.76151907  
-18039.0422023 -58197.6610398 -37355.9845886 2711.05201971  
-19504.8385314 -62585.7131871 -40224.3703421 1141.43958378  
-21149.2457178 -66166.8479158 -42784.8858805 -100.84485268  
-21891.7046304 -68217.7178061 -44153.6169938 -1084.89909029  
-22131.7048546 -69623.4430889 -44960.0224923 -1961.16468677  
-7983.99330206 -22446.5777741 -14910.9798273 5583.38653362  
-10126.5739476 -32564.5076177 -20918.629967 5039.78465954  
-10488.9750974 -38850.7051283 -24176.4433106 3985.43883573  
-10663.5029281 -43526.6143272 -26553.1574551 2616.71499892  
-11087.0178292 -47234.922743 -28577.7508804 1201.86510939  
-11960.5652035 -50375.9904991 -30544.9122943 -26.821870027  
-12877.7912027 -52811.4399054 -32187.7232429 -947.384388163  
-13077.9522862 -54207.3594664 -32969.8027588 -1623.32651143  
-13036.6860773 -55525.6561921 -33595.547712 -2194.58986594  
-3026.99440881 -15086.6820101 -8875.70144526 3874.52702274  
-5309.50780225 -24482.1111712 -14597.893297 3312.2401943  
-5348.19322632 -29793.0828973 -17219.2253006 2352.66686057  
-4909.28298784 -33212.0484527 -18679.4524059 1179.20675483  
-4782.75524104 -35768.7307049 -19870.2281135 33.3638165539  
-4991.6294404 -37769.1011506 -20952.7579896 -885.320003012  
-5062.11777151 -39099.9959689 -21639.4357328 -1473.96901055  
-4547.89905505 -39813.2299879 -21736.953231 -1788.23396596  
-4277.68551103 -41237.8786328 -22302.6264305 -1986.31732008  
-970.672782313 -9364.08944931 -5064.0334935 2954.58838225  
-2678.06209347 -17425.0230673 -9850.51172876 2291.71670769  
-835.826269156 -20261.6937482 -10337.7848085 1306.32313891  
496.201487834 -22196.092516 -10632.9466038 234.760097545  
1170.24840422 -23684.2355256 -11031.8536895 -697.692473346  
1464.0184729 -24801.0521597 -11435.1465065 -1333.87336457  
2051.42108279 -25277.3272048 -11380.6939998 -1589.60097193  
3907.04417275 -24704.1923412 -10190.6026026 -1496.81967811  
5581.41914857 -25188.0784031 -9607.26303469 -1212.48303852  
-8323.37134596 -12378.3221657 -10143.8298207 3124.42707095  
22.2483444193 -9788.54645927 -4785.48607628 2023.36110027  
4666.67200921 -9083.61026902 -2164.2997473 808.451555665  
6603.86915444 -9684.94916935 -1509.72920731 -230.934833529  
7213.1193647 -10701.9169468 -1709.51081521 -968.158209482  
7273.31558265 -11722.5847995 -2180.14191628 -1336.07681536  
7672.82505354 -12213.3059042 -2224.83561685 -1292.54236257  
10011.3020022 -11081.358239 -524.327556042 -816.985514338  
17109.7135384 -6452.79207785 5221.89151567 57.9690144892  
-87875.4583128 -149337.144464 -116499.111607 1880.9916433  
-71090.6360421 -132325.400941 -99890.2050655 1628.84352621  
35209.1080934 85701.3266679 59244.0032649 16232.8317437  
8766.57479871 61353.081646 34416.7798232 16282.3967998  
-49836.9212401 -13370.4871436 -30959.6018928 19112.020707  
-60284.6757174 -41349.2638019 -49800.6303645 18679.6536971  
-74369.7595247 -74440.3533125 -72916.9552903 17456.4207504  
-80603.4294235 -99921.7072212 -88457.3169559 15557.9438618  
-84570.1661446 -121020.996352 -100739.669623 13079.5352828  
-87975.3435178 -138397.130243 -110909.626476 10269.3558769  
-93664.8471912 -151265.878551 -120116.761437 6986.81122086  
-103192.793277 -163717.892113 -131062.337084 4318.30909702  
-114616.280312 -176308.639437 -142907.286957 2624.04154715  
-97426.888228 -158692.098335 -125776.877958 1936.92473124  
-96915.1224046 -157134.22613 -124696.363696 2923.77971209  
-94109.3309352 -151953.630245 -120604.811142 4473.47136061  
-94738.5692758 -144405.725855 -117178.963024 6543.1456643  
-97120.5459751 -134594.313516 -113540.281151 9143.03930221  
-97297.5910586 -120009.900994 -106480.671106 12246.0508899  
-96110.5765239 -101907.506314 -97028.8605907 15627.9918065  
-98410.9337844 -85756.1248188 -90241.8587155 18814.3475338  
-139111.30097 -105340.162987 -119890.714524 20889.4561061  
-263335.032678 -247810.689131 -250461.403686 11834.8412901  
-121594.902254 -83324.962267 -100410.733615 5980.85139049  
-275991.822816 -236693.198538 -251215.660463 6601.96348833  
-56683.3584915 -8139.17324951 -31764.7862971 4284.36265926  
-52833.94622 7069.60898078 -22627.0530132 6854.63263107  
-259940.785218 -211962.310294 -231261.206446 10095.6729225  
-128038.257274 -75067.0883371 -99651.2478253 12109.6774973  
-162681.952631 -109211.539898 -133238.219397 6942.68235536  
-104471.745342 -45861.6635078 -73837.4196538 9290.29700778  
-534530.426219 -574753.30992 -543769.274412 8436.99997862  
-596652.635117 -618292.62407 -595323.177002 12890.7749644  
-567167.63478 -588208.136516 -566134.127935 15053.5686606  
-540660.494775 -560933.551553 -539781.082701 16882.384153  
-511017.405902 -530424.53341 -510306.550263 18414.598502  
-475432.94221 -493822.254642 -474935.046458 19590.8618341  
-433288.623879 -450497.665128 -433055.281614 20324.7675859  
-384155.027555 -400017.082235 -384244.333797 20522.3325148  
-325234.999561 -339542.545458 -325740.997059 20064.0166823  
-248547.584425 -261262.352601 -249806.869143 18723.6148513  
-158412.315419 -220032.823911 -185909.985262 2940.72149047  
-277484.387529 -334221.620468 -299937.666586 4610.61300284  
-255479.625439 -303802.909484 -274065.405635 7826.72611814  
-156975.759117 -217128.070418 -183605.708733 4138.60667196  
-271534.490677 -311905.712287 -285885.433444 10719.3782917  
-146232.925734 -203444.26517 -171400.000333 6800.56529591  
-276166.246765 -312320.001863 -288358.261828 13606.2678717  
-147642.047487 -199520.872689 -170085.198509 10198.4324486  
-279128.88024 -310634.359242 -288983.987346 16179.4281003  
-152772.657412 -195586.887786 -170699.005071 13482.5453054  
-282404.860548 -308042.845408 -289319.375919 18124.1163044  
-160611.893342 -191991.260391 -172775.545329 16221.7637371  
-287242.281209 -305624.577525 -290504.76078 19088.3302796  
-170363.574668 -187430.278627 -175318.988115 17641.3751028  
-295083.577495 -304662.601247 -293875.627584 18852.9459504  
-179569.90765 -180158.454338 -176266.897374 17463.4289951  
-310087.737921 -308411.232913 -303064.495709 17221.0734618  
-186582.913256 -168421.310074 -173952.069432 15945.763316  
-344179.156386 -321955.08888 -326405.78018 13816.2121793  
-169123.821306 -131755.517302 -147430.847582 13839.0242905  
8009.88524035 -26778.1566445 -9196.45298801 2756.95554357  
-397914.225419 -454449.578162 -417980.01747 6793.32322541  
-359997.350767 -416160.867973 -380419.780781 6293.75689282  
-321469.159607 -376510.551057 -342010.058225 5789.54437088  
-283615.57624 -336670.097961 -303939.980358 5246.74588909  
-245440.577477 -296363.595599 -265484.044808 4732.61532257  
-207016.628261 -255650.331788 -226706.810424 4251.96571343  
-168283.264565 -214476.678478 -187552.372091 3814.82884466  
-129244.263158 -172882.475874 -148042.102125 3436.33018424  
-89943.866907 -130981.267643 -108253.315929 3132.389721  
-50455.1806668 -88948.6676925 -68307.8856961 2914.52625084  
-9675.67782982 -45759.9304096 -27163.4480373 2791.25585602  
7464.34140645 -26698.4514541 -9424.71392333 163.185248394  
-6634.64783904 -37028.4442697 -21394.9151333 -1227.82986969  
-268376.270084 -326038.950219 -291453.725942 4230.73718685  
-239340.597025 -295864.228104 -262274.741692 3615.65126464  
-212130.275429 -266832.742389 -234686.758549 3023.18027861  
-185025.20416 -238054.107604 -207308.862764 2411.5101023  
-158184.84265 -209488.73636 -180160.053715 1768.07019515  
-131497.28242 -180820.099175 -153035.516981 1109.56263592  
-105049.325346 -152042.281348 -125974.88728 490.937467803  
-78843.4846847 -123141.293637 -98972.5413779 -7.96803630178  
-52905.5208223 -94221.7319397 -72092.3538534 -291.616328731  
-27261.1252415 -65505.6878039 -45455.7383922 -268.197391654  
-2486.70014896 -37968.0932866 -19822.8487834 -27.0202437482  
-153923.425957 -214621.104289 -180965.02986 2542.33388075  
-135347.396446 -194322.769193 -161712.741504 1714.90918203  
-118746.340614 -176909.550963 -144918.789328 806.00537028  
-102857.475361 -159730.98769 -128658.107964 -191.767520512  
-87526.113277 -142019.902938 -112477.396478 -1225.79908359  
-71833.6757255 -123870.748513 -95895.1678771 -2226.59543328  
-56074.9128386 -105098.495812 -78974.9702387 -3102.52972966  
-40357.9480491 -85804.7193866 -61819.7070435 -3731.13710283  
-24813.8516554 -66222.8514294 -44607.9845116 -3973.83170195  
-9639.96060208 -46775.6365461 -27643.6426026 -3683.88224569  
3006.35929376 -29969.8142596 -13212.0929333 -2408.71440984  
</DataArray>
<DataArray type="Float64" Name="equivalent_strain" NumberOfComponents="1" format="ascii" >
0.000734167248745  
0.0  
0.000668930264669  
4.74784955963e-06  
0.0  
0.0  
0.0  
0.0  
0.0  
0.0  
0.0  
0.0  
0.0  
0.0  
0.0  
0.0  
0.0  
0.0  
0.0  
0.0  
0.0  
0.000242222606961  
0.0  
0.0  
0.0  
0.0  
0.0  
0.0  
4.20871609817e-06  
7.00709632054e-05  
0.000160596905796  
0.000247910711143  
0.000172982939312  
4.3271697857e-05  
0.0  
0.0  
0.0  
0.0  
0.0  
0.000229030376627  
0.000258851912284  
0.0  
0.0  
0.0  
0.0  
0.0  
2.25494988132e-05  
0.000105563135511  
0.000168046113795  
0.0  
0.0  
0.0  
0.0  
0.0  
0.0  
2.46694513087e-06  
3.36653351452e-05  
7.04345632503e-05  
0.0  
0.0  
0.0  
0.0  
0.0  
0.0  
0.0  
0.0  
3.81628977394e-06  
0.0  
0.0  
0.0  
0.0  
0.0  
0.0  
0.0  
0.0  
0.0  
0.0  
0.0  
0.0  
0.0  
0.0  
0.0  
0.0  
0.0  
0.0  
0.0  
0.0  
0.0  
0.0  
0.0  
0.0  
0.0  
0.0  
0.0  
0.0  
0.0  
0.0  
0.0  
0.0  
0.0  
0.0  
0.0  
0.0  
0.0  
0.0  
0.0  
0.0  
0.0  
0.0  
0.0  
0.0  
0.0  
0.0  
0.0  
0.0  
0.0  
0.0  
0.0  
0.0  
0.0  
0.0  
0.000339812593461  
0.000309470371849  
0.000100766023037  
0.000334813327379  
0.0  
0.0  
0.0  
0.0  
0.0  
2.69321380002e-06  
0.000112646899076  
0.000273483543361  
0.000345675009239  
0.00031515134105  
0.00024147268132  
7.26618787375e-05  
0.0  
0.0  
0.0  
0.0  
0.0  
5.1212603713e-05  
0.0  
0.0  
0.0  
0.0  
0.00032641657621  
3.19283000984e-05  
0.000147625275981  
2.57968407487e-05  
0.000313134134629  
6.43696258306e-05  
0.0  
0.0  
0.0  
0.0  
0.0  
0.0  
0.0  
0.0  
0.0  
0.00033493416617  
0.000109487133508  
2.28132805699e-05  
0.000212240697953  
0.0  
6.75196075979e-05  
0.0  
4.73917296721e-06  
0.0  
0.0  
0.0  
0.0  
0.0  
0.0  
0.0  
0.0  
0.0  
0.0  
0.0  
0.0  
0.0  
9.15847390127e-05  
2.7722518892e-05  
0.0  
0.0  
0.0  
0.0  
0.0  
0.0  
0.0  
0.0  
0.0  
0.0  
0.0  
0.000105244848951  
2.48916637335e-05  
0.0  
0.0  
0.0  
0.0  
0.0  
0.0  
0.0  
0.0  
0.0  
0.000269365432954  
0.000128265100167  
4.09347475528e-05  
6.72479911616e-07  
0.0  
0.0  
0.0  
0.0  
0.0  
0.0  
0.0  
</DataArray>
</PointData>
<CellData>
</CellData>
<Points>
<DataArray type="Float64" Name="Points" NumberOfComponents="3" format="ascii">
45.0 30.0 0.0
35.0 40.0 0.0
44.0 31.0 0.0
43.0 32.0 0.0
42.0 33.0 0.0
41.0 34.0 0.0
40.0 35.0 0.0
39.0 36.0 0.0
38.0 37.0 0.0
37.0 38.0 0.0
36.0 39.0 0.0
25.0 40.0 0.0
34.0 40.0 0.0
33.0 40.0 0.0
32.0 40.0 0.0
31.0 40.0 0.0
30.0 40.0 0.0
29.0 40.0 0.0
28.0 40.0 0.0
27.0 40.0 0.0
26.0 40.0 0.0
25.0 30.0 0.0
25.0 39.0 0.0
25.0 38.0 0.0
25.0 37.0 0.0
25.0 36.0 0.0
25.0 35.0 0.0
25.0 34.0 0.0
25.0 33.0 0.0
25.0 32.0 0.0
25.0 31.0 0.0
27.0 30.0 0.0
29.0 30.0 0.0
31.0 30.0 0.0
33.0 30.0 0.0
35.0 30.0 0.0
37.0 30.0 0.0
39.0 30.0 0.0
41.0 30.0 0.0
43.0 30.0 0.0
42.1 31.0 0.0
40.2 31.0 0.0
38.3 31.0 0.0
36.4 31.0 0.0
34.5 31.0 0.0
32.6 31.0 0.0
30.7 31.0 0.0
28.8 31.0 0.0
26.9 31.0 0.0
41.2 32.0 0.0
39.4 32.0 0.0
37.6 32.0 0.0
35.8 32.0 0.0
34.0 32.0 0.0
32.2 32.0 0.0
30.4 32.0 0.0
28.6 32.0 0.0
26.8 32.0 0.0
40.3 33.0 0.0
38.6 33.0 0.0
36.9 33.0 0.0
35.2 33.0 0.0
33.5 33.0 0.0
31.8 33.0 0.0
30.1 33.0 0.0
28.4 33.0 0.0
26.7 33.0 0.0
39.4 34.0 0.0
37.8 34.0 0.0
36.2 34.0 0.0
34.6 34.0 0.0
33.0 34.0 0.0
31.4 34.0 0.0
29.8 34.0 0.0
28.2 34.0 0.0
26.6 34.0 0.0
38.5 35.0 0.0
37.0 35.0 0.0
35.5 35.0 0.0
34.0 35.0 0.0
32.5 35.0 0.0
31.0 35.0 0.0
29.5 35.0 0.0
28.0 35.0 0.0
26.5 35.0 0.0
37.6 36.0 0.0
36.2 36.0 0.0
34.8 36.0 0.0
33.4 36.0 0.0
32.0 36.0 0.0
30.6 36.0 0.0
29.2 36.0 0.0
27.8 36.0 0.0
26.4 36.0 0.0
36.7 37.0 0.0
35.4 37.0 0.0
34.1 37.0 0.0
32.8 37.0 0.0
31.5 37.0 0.0
30.2 37.0 0.0
28.9 37.0 0.0
27.6 37.0 0.0
26.3 37.0 0.0
35.8 38.0 0.0
34.6 38.0 0.0
33.4 38.0 0.0
32.2 38.0 0.0
31.0 38.0 0.0
29.8 38.0 0.0
28.6 38.0 0.0
27.4 38.0 0.0
26.2 38.0 0.0
34.9 39.0 0.0
33.8 39.0 0.0
32.7 39.0 0.0
31.6 39.0 0.0
30.5 39.0 0.0
29.4 39.0 0.0
28.3 39.0 0.0
27.2 39.0 0.0
26.1 39.0 0.0
25.0 28.0 0.0
25.0 29.0 0.0
45.0 28.0 0.0
45.0 29.0 0.0
43.0 28.0 0.0
41.0 28.0 0.0
39.0 28.0 0.0
37.0 28.0 0.0
35.0 28.0 0.0
33.0 28.0 0.0
31.0 28.0 0.0
29.0 28.0 0.0
27.0 28.0 0.0
27.0 29.0 0.0
29.0 29.0 0.0
31.0 29.0 0.0
33.0 29.0 0.0
35.0 29.0 0.0
37.0 29.0 0.0
39.0 29.0 0.0
41.0 29.0 0.0
43.0 29.0 0.0
75.0 0.0 0.0
75.0 30.0 0.0
75.0 15.0 0.0
57.8571428571 30.0 0.0
49.2857142857 30.0 0.0
57.8571428571 16.0 0.0
49.2857142857 24.0 0.0
57.8571428571 23.0 0.0
49.2857142857 27.0 0.0
0.0 0.0 0.0
7.5 0.0 0.0
15.0 0.0 0.0
22.5 0.0 0.0
30.0 0.0 0.0
37.5 0.0 0.0
45.0 0.0 0.0
52.5 0.0 0.0
60.0 0.0 0.0
67.5 0.0 0.0
21.4285714286 24.0 0.0
14.2857142857 16.0 0.0
18.6428571429 16.0 0.0
24.2142857143 24.0 0.0
23.0 16.0 0.0
27.0 24.0 0.0
27.3571428571 16.0 0.0
29.7857142857 24.0 0.0
31.7142857143 16.0 0.0
32.5714285714 24.0 0.0
36.0714285714 16.0 0.0
35.3571428571 24.0 0.0
40.4285714286 16.0 0.0
38.1428571429 24.0 0.0
44.7857142857 16.0 0.0
40.9285714286 24.0 0.0
49.1428571429 16.0 0.0
43.7142857143 24.0 0.0
53.5 16.0 0.0
46.5 24.0 0.0
0.0 40.0 0.0
0.0 3.33333333333 0.0
0.0 6.66666666667 0.0
0.0 10.0 0.0
0.0 13.3333333333 0.0
0.0 16.6666666667 0.0
0.0 20.0 0.0
0.0 23.3333333333 0.0
0.0 26.6666666667 0.0
0.0 30.0 0.0
0.0 33.3333333333 0.0
0.0 36.6666666667 0.0
14.2857142857 40.0 0.0
21.4285714286 40.0 0.0
14.2857142857 18.0 0.0
14.2857142857 20.0 0.0
14.2857142857 22.0 0.0
14.2857142857 24.0 0.0
14.2857142857 26.0 0.0
14.2857142857 28.0 0.0
14.2857142857 30.0 0.0
14.2857142857 32.0 0.0
14.2857142857 34.0 0.0
14.2857142857 36.0 0.0
14.2857142857 38.0 0.0
21.4285714286 25.3333333333 0.0
21.4285714286 26.6666666667 0.0
21.4285714286 28.0 0.0
21.4285714286 29.3333333333 0.0
21.4285714286 30.6666666667 0.0
21.4285714286 32.0 0.0
21.4285714286 33.3333333333 0.0
21.4285714286 34.6666666667 0.0
21.4285714286 36.0 0.0
21.4285714286 37.3333333333 0.0
21.4285714286 38.6666666667 0.0
</DataArray>
</Points>
<Cells>
<DataArray type="Int64" Name="connectivity" format="ascii">
0 2 40 39 
2 3 49 40 
3 4 58 49 
4 5 67 58 
5 6 76 67 
6 7 85 76 
7 8 94 85 
8 9 103 94 
9 10 112 103 
10 1 12 112 
39 40 41 38 
40 49 50 41 
49 58 59 50 
58 67 68 59 
67 76 77 68 
76 85 86 77 
85 94 95 86 
94 103 104 95 
103 112 113 104 
112 12 13 113 
38 41 42 37 
41 50 51 42 
50 59 60 51 
59 68 69 60 
68 77 78 69 
77 86 87 78 
86 95 96 87 
95 104 105 96 
104 113 114 105 
113 13 14 114 
37 42 43 36 
42 51 52 43 
51 60 61 52 
60 69 70 61 
69 78 79 70 
78 87 88 79 
87 96 97 88 
96 105 106 97 
105 114 115 106 
114 14 15 115 
36 43 44 35 
43 52 53 44 
52 61 62 53 
61 70 71 62 
70 79 80 71 
79 88 89 80 
88 97 98 89 
97 106 107 98 
106 115 116 107 
115 15 16 116 
35 44 45 34 
44 53 54 45 
53 62 63 54 
62 71 72 63 
71 80 81 72 
80 89 90 81 
89 98 99 90 
98 107 108 99 
107 116 117 108 
116 16 17 117 
34 45 46 33 
45 54 55 46 
54 63 64 55 
63 72 73 64 
72 81 82 73 
81 90 91 82 
90 99 100 91 
99 108 109 100 
108 117 118 109 
117 17 18 118 
33 46 47 32 
46 55 56 47 
55 64 65 56 
64 73 74 65 
73 82 83 74 
82 91 92 83 
91 100 101 92 
100 109 110 101 
109 118 119 110 
118 18 19 119 
32 47 48 31 
47 56 57 48 
56 65 66 57 
65 74 75 66 
74 83 84 75 
83 92 93 84 
92 101 102 93 
101 110 111 102 
110 119 120 111 
119 19 20 120 
31 48 30 21 
48 57 29 30 
57 66 28 29 
66 75 27 28 
75 84 26 27 
84 93 25 26 
93 102 24 25 
102 111 23 24 
111 120 22 23 
120 20 11 22 
121 133 134 122 
133 132 135 134 
132 131 136 135 
131 130 137 136 
130 129 138 137 
129 128 139 138 
128 127 140 139 
127 126 141 140 
126 125 142 141 
125 123 124 142 
122 134 31 21 
134 135 32 31 
135 136 33 32 
136 137 34 33 
137 138 35 34 
138 139 36 35 
139 140 37 36 
140 141 38 37 
141 142 39 38 
142 124 0 39 
143 145 150 148 
145 144 146 150 
148 150 151 149 
150 146 147 151 
149 151 124 123 
151 147 0 124 
152 153 164 163 
153 154 166 164 
154 155 168 166 
155 156 170 168 
156 157 172 170 
157 158 174 172 
158 159 176 174 
159 160 178 176 
160 161 180 178 
161 143 148 180 
163 164 165 162 
164 166 167 165 
166 168 169 167 
168 170 171 169 
170 172 173 171 
172 174 175 173 
174 176 177 175 
176 178 179 177 
178 180 181 179 
180 148 149 181 
162 165 133 121 
165 167 132 133 
167 169 131 132 
169 171 130 131 
171 173 129 130 
173 175 128 129 
175 177 127 128 
177 179 126 127 
179 181 125 126 
181 149 123 125 
152 163 196 183 
163 162 207 196 
162 121 122 207 
183 196 197 184 
196 207 208 197 
207 122 21 208 
184 197 198 185 
197 208 209 198 
208 21 30 209 
185 198 199 186 
198 209 210 199 
209 30 29 210 
186 199 200 187 
199 210 211 200 
210 29 28 211 
187 200 201 188 
200 211 212 201 
211 28 27 212 
188 201 202 189 
201 212 213 202 
212 27 26 213 
189 202 203 190 
202 213 214 203 
213 26 25 214 
190 203 204 191 
203 214 215 204 
214 25 24 215 
191 204 205 192 
204 215 216 205 
215 24 23 216 
192 205 206 193 
205 216 217 206 
216 23 22 217 
193 206 194 182 
206 217 195 194 
217 22 11 195 
</DataArray>
<DataArray type="Int64" Name="offsets" format="ascii">
4
8
12
16
20
24
28
32
36
40
44
48
52
56
60
64
68
72
76
80
84
88
92
96
100
104
108
112
116
120
124
128
132
136
140
144
148
152
156
160
164
168
172
176
180
184
188
192
196
200
204
208
212
216
220
224
228
232
236
240
244
248
252
256
260
264
268
272
276
280
284
288
292
296
300
304
308
312
316
320
324
328
332
336
340
344
348
352
356
360
364
368
372
376
380
384
388
392
396
400
404
408
412
416
420
424
428
432
436
440
444
448
452
456
460
464
468
472
476
480
484
488
492
496
500
504
508
512
516
520
524
528
532
536
540
544
548
552
556
560
564
568
572
576
580
584
588
592
596
600
604
608
612
616
620
624
628
632
636
640
644
648
652
656
660
664
668
672
676
680
684
688
692
696
700
704
708
712
716
720
724
728
732
736
740
744
748
752
756
760
764
768
</DataArray>
<DataArray type="UInt8" Name="types" format="ascii" RangeMin="9" RangeMax="9">
9
9
9
9
9
9
9
9
9
9
9
9
9
9
9
9
9
9
9
9
9
9
9
9
9
9
9
9
9
9
9
9
9
9
9
9
9
9
9
9
9
9
9
9
9
9
9
9
9
9
9
9
9
9
9
9
9
9
9
9
9
9
9
9
9
9
9
9
9
9
9
9
9
9
9
9
9
9
9
9
9
9
9
9
9
9
9
9
9
9
9
9
9
9
9
9
9
9
9
9
9
9
9
9
9
9
9
9
9
9
9
9
9
9
9
9
9
9
9
9
9
9
9
9
9
9
9
9
9
9
9
9
9
9
9
9
9
9
9
9
9
9
9
9
9
9
9
9
9
9
9
9
9
9
9
9
9
9
9
9
9
9
9
9
9
9
9
9
9
9
9
9
9
9
9
9
9
9
9
9
9
9
9
9
9
9
9
9
9
9
9
9
</DataArray>
</Cells>
</Piece>
</UnstructuredGrid>
</VTKFile>
