<?xml version="1.0"?>
<VTKFile type="UnstructuredGrid" version="0.1" byte_order="LittleEndian" compressor="vtkZLibDataCompressor">
<UnstructuredGrid>
<Piece NumberOfPoints="218" NumberOfCells="192">
<PointData>
<DataArray type="Float64" Name="displacement" NumberOfComponents="3" format="ascii" >
0.0835233320573 -0.00895462612237  0.
0.0470520407123 -0.0718667665282  0.
0.0905072071789 -0.0130781819253  0.
0.0908198311622 -0.0185842865847  0.
0.0882805821109 -0.0246435791076  0.
0.0840978756553 -0.0310777185883  0.
0.0787266197914 -0.0378175366753  0.
0.0725452256427 -0.0447735728326  0.
0.0659077231757 -0.0518208499371  0.
0.0591639496801 -0.058795418633  0.
0.0526876423924 -0.0655079240531  0.
0.0419479420434 -0.109637659497  0.
0.0470839200274 -0.0780366013151  0.
0.0467716765292 -0.0834759878331  0.
0.0463163729894 -0.0883104078205  0.
0.0457915235194 -0.0926161155908  0.
0.0452355198163 -0.0964459729348  0.
0.0446597432778 -0.0998236008514  0.
0.0440653534354 -0.10277047269  0.
0.0434476537287 -0.105327734924  0.
0.0427821340212 -0.107565343709  0.
0.058596043571 -0.0817387734441  0.
0.0432644452402 -0.108376862068  0.
0.044774982973 -0.106716869937  0.
0.0464049078013 -0.104707448859  0.
0.0481313869774 -0.102332107737  0.
0.0499364544634 -0.0995956643284  0.
0.0517771777835 -0.0965264508709  0.
0.0536040919046 -0.0931610762209  0.
0.0553728214324 -0.0895415873164  0.
0.0570465343472 -0.085715689917  0.
0.0657877386879 -0.0785273376025  0.
0.07272401164 -0.074626205896  0.
0.0790600528904 -0.0698253452215  0.
0.0844505082387 -0.0639212438772  0.
0.0886239143112 -0.056853117341  0.
0.0913985907049 -0.0487406524295  0.
0.0926410018047 -0.0398900526474  0.
0.0921056792936 -0.0305342242872  0.
0.0893948766205 -0.0206240220808  0.
0.0922068823077 -0.0243268035237  0.
0.0924902479074 -0.0344863101243  0.
0.0914106662752 -0.0440029679751  0.
0.0892057135779 -0.0529119175731  0.
0.0859304290345 -0.0610295773017  0.
0.0815811070364 -0.0680923632317  0.
0.0762865002892 -0.0740000100244  0.
0.0702536350568 -0.0787918167756  0.
0.0637490719722 -0.0826344641099  0.
0.0910821592113 -0.0293785866072  0.
0.0902773884934 -0.0393824160663  0.
0.0885163532677 -0.0487708164077  0.
0.0858777134632 -0.0575003490042  0.
0.0824289624135 -0.0654530592381  0.
0.0781378123338 -0.072377240785  0.
0.0731001649799 -0.0781757389591  0.
0.0674831871949 -0.0828745832754  0.
0.0614998016103 -0.0866083144267  0.
0.0879744863449 -0.0350745720739  0.
0.0866718280998 -0.0448000107213  0.
0.0845553871004 -0.0539011031622  0.
0.08174623559 -0.0623235544091  0.
0.078321080999 -0.0699899706929  0.
0.0742465470378 -0.0766722191844  0.
0.0695901666223 -0.0822740230148  0.
0.0644828599437 -0.0868128315944  0.
0.0590929362935 -0.0903952869725  0.
0.0835068403801 -0.0411576549356  0.
0.0819919910446 -0.0505314625364  0.
0.0797640973889 -0.0592413249223  0.
0.0769716430873 -0.0672516596348  0.
0.0737273512346 -0.0745291997396  0.
0.0700039640514 -0.08088294516  0.
0.0658369750211 -0.0862169115166  0.
0.0613217072696 -0.0905433713726  0.
0.0565853065719 -0.0939424330912  0.
0.0780269934814 -0.047489993539  0.
0.0764965287889 -0.0564236092153  0.
0.074347889555 -0.0646531152483  0.
0.0717363053604 -0.07216694354  0.
0.0687929760484 -0.0789648535915  0.
0.0655250521225 -0.0849146994806  0.
0.0619341701015 -0.0899246770153  0.
0.058076396524 -0.0940006675498  0.
0.0540389265297 -0.0971968586155  0.
0.0718636814075 -0.0539369611838  0.
0.0704671832199 -0.0623321239845  0.
0.068550155977 -0.0699996609455  0.
0.0662584153805 -0.076950674586  0.
0.0637155103726 -0.083201329092  0.
0.06095993891 -0.0886805201122  0.
0.0579928675275 -0.0933208932321  0.
0.0548333107384 -0.097119378731  0.
0.0515217709841 -0.100106829383  0.
0.065346299478 -0.0603522670529  0.
0.064198948985 -0.0681124982647  0.
0.0626266352383 -0.0751468927641  0.
0.0607578082472 -0.0814827143431  0.
0.058699183535 -0.0871482280167  0.
0.0564953163012 -0.0921133249716  0.
0.0541587767883 -0.0963440696785  0.
0.0516933604067 -0.0998433041162  0.
0.0491012288939 -0.102626541749  0.
0.0588086488277 -0.0665809689325  0.
0.0579857888813 -0.0736275808499  0.
0.056817612344 -0.0799728896594  0.
0.0554210925296 -0.0856554167611  0.
0.0538870210625 -0.0907151675448  0.
0.0522562203593 -0.0951500107664  0.
0.0505412959847 -0.0989531383999  0.
0.0487405754166 -0.102141064456  0.
0.0468301904348 -0.104730682666  0.
0.0526024062058 -0.0724878628401  0.
0.0521044570195 -0.0787696277636  0.
0.0513315112209 -0.0843817343993  0.
0.0503981573162 -0.0893856377672  0.
0.0493766541336 -0.0938307784025  0.
0.0482981574996 -0.0977335812705  0.
0.0471724899939 -0.101106175644  0.
0.0459953905183 -0.10397937576  0.
0.0447308632357 -0.10639542174  0.
0.0613240967327 -0.0735491569937  0.
0.0600196480277 -0.0776574864798  0.
0.0849583058196 -0.0157254751609  0.
0.0840927737088 -0.012677064235  0.
0.0900763889487 -0.0240510663089  0.
0.093184633287 -0.0316841856304  0.
0.0945404196616 -0.0390994873132  0.
0.0940122555697 -0.0461682435184  0.
0.0916172579694 -0.0526407082712  0.
0.087542956646 -0.0582463913823  0.
0.0821161441522 -0.0629524116677  0.
0.0756777180381 -0.0669027840828  0.
0.0685886765291 -0.0703513204581  0.
0.0672958838496 -0.074485423383  0.
0.0743474630784 -0.0708064367927  0.
0.0807586530932 -0.0664228130081  0.
0.0861520159198 -0.0611057453901  0.
0.0902234052091 -0.0547429226682  0.
0.0927914231165 -0.0474116021124  0.
0.0937155730279 -0.0394159459198  0.
0.0928490621037 -0.0310552129651  0.
0.0898995869221 -0.0223444024385  0.
0.0 0.0  0.
0.0 0.0513833955903  0.
0.0 0.0227107539222  0.
0.0388416262929 0.0316068073158  0.
0.0651805829159 0.0115192488693  0.
0.0516023364644 -0.00739117446408  0.
0.0752748216431 -0.0101569521339  0.
0.0455078166107 0.0130598156153  0.
0.070657716252 0.000332329123327  0.
0.0 0.0  0.
0.0 0.0  0.
0.0 0.0  0.
0.0 0.0  0.
0.0 0.0  0.
0.0 0.0  0.
0.0 0.0  0.
0.0 0.0  0.
0.0 0.0  0.
0.0 0.0  0.
0.0530732149141 -0.062600530638  0.
0.0345291468595 -0.0400171643889  0.
0.044920022395 -0.0358301981326  0.
0.0625400314732 -0.0583399183731  0.
0.0520531177874 -0.0342468035088  0.
0.0706209313172 -0.055183559229  0.
0.0582045221742 -0.0327189328213  0.
0.0775848734033 -0.052074594155  0.
0.0633748645701 -0.0310284772782  0.
0.0834217631092 -0.0484208449686  0.
0.0673298913225 -0.0290322261607  0.
0.0877582004157 -0.0440297567061  0.
0.0697304768486 -0.0266340712499  0.
0.0901579242337 -0.0388413344159  0.
0.0702201737414 -0.0238130497289  0.
0.0903080860768 -0.0329991605261  0.
0.0683901481952 -0.0204309556936  0.
0.0880527386083 -0.0265642530528  0.
0.0635243836484 -0.0160925658393  0.
0.0831525503984 -0.0192401939856  0.
0.0 -0.116924085773  0.
0.0 -0.013667952545  0.
0.0 -0.0266148109487  0.
0.0 -0.0388405741162  0.
0.0 -0.0503487442963  0.
0.0 -0.0611329609785  0.
0.0 -0.0711856472229  0.
0.0 -0.0805064765398  0.
0.0 -0.089109460878  0.
0.0 -0.0970277862394  0.
0.0 -0.10429493983  0.
0.0 -0.110922440832  0.
0.0253126112167 -0.110067021714  0.
0.0373555274153 -0.111047095698  0.
0.0335322687527 -0.0483863312321  0.
0.0325894870325 -0.0562437141559  0.
0.0317025450138 -0.0636136349414  0.
0.0308154068365 -0.0705473577651  0.
0.0299080692462 -0.0770534689863  0.
0.0289935909028 -0.0831160959727  0.
0.0281138703865 -0.0887115821826  0.
0.0273320229515 -0.0938240465389  0.
0.0267206357395 -0.0984579601337  0.
0.026140627086 -0.102696697184  0.
0.0256553605729 -0.106548721267  0.
0.051531633303 -0.0684943412686  0.
0.0501770019413 -0.0739394915492  0.
0.0488025864678 -0.0791257140578  0.
0.0473682445687 -0.0840567976462  0.
0.0458743976679 -0.0887057819179  0.
0.0443491205503 -0.0930346664323  0.
0.0428417391353 -0.0970038260431  0.
0.041419181171 -0.10057823867  0.
0.0401487242978 -0.103736705837  0.
0.0389808298149 -0.106517409448  0.
0.0379215659558 -0.108950024417  0.
</DataArray>
<DataArray type="Float64" Name="stresses" NumberOfComponents="4" format="ascii" >
-140777.721858 -84747.1670294 -111619.948226 26677.6623961  
-71484.8337754 -73579.1526068 -71081.3533273 3403.32520318  
57117.1267588 75073.1665251 65798.5147826 38099.0159445  
18859.2680559 22906.5859786 20661.1040078 27558.3378534  
23827.8086502 19937.1316216 21444.8207332 19805.0201973  
31004.3067979 22191.5381416 26065.9640203 12679.5935106  
27555.7887827 15921.5593936 21303.9006064 7626.73399067  
16391.018778 3718.77762045 9853.80023525 4175.65046775  
932.453874722 -10893.2254701 -4880.77808173 2049.9554982  
-14254.1568446 -23014.0737805 -18261.4330063 1194.40941423  
-34410.3968817 -38005.5252989 -35483.8018685 2495.43449417  
-53184.4117174 -84506.9743201 -67468.7791583 -408.332568961  
-56950.2364881 -63171.7540173 -58859.7753476 2804.54605552  
-62632.7022522 -75790.4374427 -67827.3384505 793.331009151  
-69596.0054451 -85991.7300073 -76237.9903717 -633.856989724  
-72028.1675188 -89930.9806007 -79359.9825786 -1391.52715047  
-71038.9361308 -89617.3753437 -78721.5926225 -1664.68405316  
-68393.650268 -87402.7187914 -76340.2208391 -1590.25308729  
-65715.5695596 -85200.4160244 -73948.8329362 -1138.31836717  
-63450.6503474 -83829.8599771 -72167.450059 -136.297631464  
-54495.3965613 -77484.9315054 -64670.3607527 1875.42780925  
-87274.9689561 -160077.970634 -121974.187498 473.127688412  
24778.629694 -14801.3675373 4888.85845681 -2304.77662301  
16073.5159848 -32931.6610494 -8260.49108162 -3887.79006981  
11983.5173778 -44886.2379746 -16160.6437188 -4465.62070142  
3183.66995955 -57239.1985338 -26580.7104653 -4291.35823305  
-9255.42184635 -72745.0516831 -40347.2602857 -3854.85951482  
-23127.5302142 -89356.5545447 -55383.4680487 -3187.57175622  
-38105.6936778 -106681.206097 -71326.5020666 -2345.81863752  
-53855.5342683 -124335.015917 -87823.377366 -1391.67613118  
-69894.084099 -141781.866594 -104361.389015 -415.407156416  
-115834.186163 -187857.744748 -149712.556826 790.274402403  
-118073.559564 -188127.612009 -150862.917073 2207.57349471  
-119633.780184 -185916.663331 -150367.302318 4607.86149628  
-122240.753768 -182636.030476 -149750.813575 8322.15000166  
-128530.517358 -179544.564692 -150982.76107 13587.9620848  
-143068.149772 -176448.429752 -156562.729747 18465.3616154  
-171084.667915 -182897.75285 -173424.215005 23403.4951185  
-209825.557164 -196570.56904 -199537.491656 28077.7132789  
-258333.630067 -221610.568963 -236796.127759 28506.9815667  
47046.9272396 59565.5791847 53023.1580975 32045.3274708  
-23979.4644835 -30363.5780617 -26554.0618475 26430.307948  
-50328.4983063 -75755.0548213 -61815.7130768 22805.4685524  
-64069.0656522 -105941.257583 -83302.845152 17256.8868418  
-73018.8931925 -127348.758621 -98250.6010609 12052.9210134  
-78625.4996865 -140098.038608 -107478.957982 7277.0400184  
-84106.4633335 -150471.912492 -115449.078732 3826.41469361  
-89219.5274317 -158761.296527 -122166.215608 1497.47394898  
-92339.2952498 -163555.582827 -126129.381048 55.784019164  
-7706.58599829 -12101.0616659 -9697.01355295 24617.0077622  
-36431.7709787 -57362.1229216 -45961.8213563 20512.8575922  
-51934.7370444 -87458.9324432 -68302.8980489 16491.9946067  
-55447.1942754 -103618.041301 -77946.6215717 12766.6736155  
-60527.6691241 -117554.223467 -87350.9474215 8818.42212394  
-64549.1109136 -126860.068578 -94063.7070281 5176.363051  
-68248.5664411 -134377.166254 -99710.3216259 2406.87385603  
-72477.8668085 -141144.088908 -105213.070343 463.766371486  
-75531.3819799 -145518.59988 -108920.534008 -753.367333813  
-21524.3289699 -35296.3685336 -27842.1417767 17200.2178269  
-33364.1407178 -62212.0148246 -46832.3162158 14737.7459469  
-40140.1765705 -81417.0938866 -59563.062524 12012.1938155  
-42726.9801415 -94319.0229558 -67157.782961 9187.50141958  
-45551.5595868 -103811.047918 -73265.3646763 6161.89192767  
-49144.0226308 -111362.001287 -78864.1684233 3348.22417421  
-52213.8495639 -117429.152437 -83454.805668 1149.71742067  
-56070.0780034 -123314.561534 -88315.2431168 -426.202412301  
-59277.6529937 -127553.976782 -92017.5206381 -1427.92800553  
-17804.8545681 -36520.4216619 -26619.3853527 11376.7680772  
-24827.8253118 -57849.3738725 -40511.8276003 10049.0398865  
-28498.5012565 -72618.5671721 -49547.36353 8178.00525486  
-30283.9248713 -83103.6252458 -55561.5436284 6057.41309497  
-31115.8789538 -89335.6222731 -59072.9192813 3801.10530884  
-34123.6236276 -95409.3095452 -63618.6814524 1705.51087739  
-36735.8926939 -100359.882925 -67409.4477446 46.5181947767  
-40286.8118897 -105547.221377 -71757.6304754 -1154.85945319  
-43555.8185345 -109649.590194 -75411.3345266 -1937.21207378  
-11697.3454897 -32525.3412539 -21669.1165044 7033.47773674  
-15632.0068611 -49862.4700227 -32092.293673 6303.32157143  
-17699.6497597 -61898.4848114 -39003.0859398 5045.66864106  
-19341.2018765 -70877.7983051 -44207.310089 3529.04713333  
-18487.1186624 -74946.5612649 -45808.8333717 1868.42274939  
-20079.8640283 -79718.2916654 -48983.52326 348.112354015  
-22152.1674832 -83515.3800271 -51917.8027459 -845.14129379  
-25036.8807794 -87746.0075172 -55451.1444366 -1668.37725275  
-28304.9536166 -91755.9802836 -59048.3962443 -2227.20646263  
-4826.31395846 -25367.6508329 -14795.0427478 4017.36086411  
-7279.24794894 -40023.270406 -23178.2339939 3594.97521053  
-8451.47019736 -50015.3520562 -28648.7429043 2779.85431844  
-9588.96139597 -57335.1650703 -32792.8219685 1770.23766295  
-7978.59109619 -60289.338236 -33450.3120404 608.764038466  
-7797.57481792 -63576.5136278 -34997.4178497 -516.455436846  
-8967.25537124 -67211.0477754 -37391.5998277 -1359.29100536  
-10835.310601 -70581.1925079 -39993.9340717 -1875.17152863  
-13759.4509841 -74140.3678238 -43192.1711402 -2230.23645268  
1202.71751113 -16795.8520994 -7640.63594824 2228.39503838  
-1202.08644119 -29967.5021541 -15273.0984117 1940.80091607  
-1831.65456335 -38238.3753812 -19634.3146728 1381.66510027  
-2081.85877296 -43635.0148633 -22401.2680818 718.41895655  
-547.924927623 -45580.3790445 -22602.8689463 -16.8358538723  
783.940642185 -47135.6078596 -22712.3169365 -762.720913419  
1067.23930978 -49705.2649016 -23832.3847627 -1324.16323009  
699.758727553 -52671.870001 -25474.3767391 -1603.75522885  
-1140.71961993 -56633.1710952 -28332.1258648 -1793.9231369  
3129.60311715 -10264.6493069 -3496.17263299 1704.89818449  
1257.9702649 -21505.2880848 -9921.18573175 1348.77932761  
2773.36040615 -26490.8979579 -11621.5934004 784.774791179  
3569.1920155 -29852.9666217 -12879.049557 225.407722728  
5015.42063307 -31033.7306791 -12748.9719226 -277.984878933  
6521.68056232 -31541.5527679 -12259.7373807 -703.428781592  
7736.93922686 -32226.7487191 -12000.0066512 -927.205781095  
9498.11879678 -32631.3499362 -11335.2832583 -880.355586418  
10400.0758019 -34589.1688593 -11852.6555981 -763.10338565  
-7021.71579294 -14642.5892216 -10615.5094571 2748.2346563  
2726.55211584 -13079.2226856 -5072.80857919 1794.91793441  
7630.68406515 -13423.9088638 -2838.68015133 833.268533611  
9442.98550019 -14653.7314233 -2553.26550232 131.246672591  
10728.681698 -15137.7689982 -2160.45277712 -325.134837691  
11831.8280538 -15298.2471672 -1698.54536559 -577.115887011  
13021.0699443 -15298.5558787 -1115.96810787 -548.952715072  
16368.3966247 -13553.1364916 1379.4774652 -126.499845211  
26795.110462 -6302.86011118 10041.2026719 656.153345062  
-117711.584397 -190997.534773 -152244.481811 1458.49161466  
-97084.1247591 -170372.294675 -131898.16901 1140.67249905  
65266.6738636 124813.829413 93506.2152632 17291.5861955  
24852.0635248 88024.9588242 55597.5002137 18292.4577999  
-55056.335746 -9230.14685718 -31839.0804272 21848.8307065  
-80210.6800913 -53096.5972343 -65381.0490081 25259.2688812  
-95673.0070138 -93733.2662977 -92809.0930778 24470.4980237  
-103942.129727 -127497.740109 -113384.740853 21752.0342038  
-109025.280036 -154122.871034 -129057.57876 17280.4716076  
-116746.353628 -174546.177394 -143153.851909 12422.1719083  
-124514.92085 -189970.984715 -154834.334543 8133.69665163  
-134822.850246 -205159.616276 -167563.392774 4638.21115455  
-152916.340516 -225740.319426 -186715.57331 2374.83729567  
-133127.546744 -205811.727914 -167115.534842 1378.13861491  
-130825.930826 -201452.045197 -163740.619687 2555.91909874  
-129340.780693 -195912.947225 -160074.838638 4672.24018808  
-127860.268283 -188184.065132 -155193.88506 8001.91223345  
-124856.127189 -174728.434921 -146768.173645 12779.9416365  
-124153.547877 -153136.721169 -135872.231833 16945.7164745  
-125060.091285 -130559.318318 -125253.510706 21069.7205261  
-137416.282834 -116898.25982 -124701.312152 24927.7044236  
-180985.474288 -137543.373753 -157021.136616 23692.7623878  
-340761.392421 -318799.054684 -323627.366875 16677.5378746  
-166578.405648 -111125.745723 -136103.276043 8211.97742973  
-361204.203271 -305791.674432 -327089.358849 8999.40799704  
-73878.3516889 -12636.2515588 -42652.9256691 5172.74219375  
-52833.9518739 17078.1768596 -17820.4755192 8186.47142938  
-336167.588948 -277060.622676 -301406.795152 12637.4777655  
-156305.929098 -92617.3416925 -122673.69842 13575.0242188  
-202560.723289 -139177.833564 -168159.609749 7852.90381005  
-122901.51665 -53310.4929687 -86912.3792052 10581.477439  
-699168.626202 -748342.563863 -710587.219914 12290.2076467  
-771729.308264 -800444.17979 -770262.020812 19395.6932187  
-734457.649847 -762206.270361 -733254.711222 22260.5443195  
-699380.335214 -726020.071698 -698465.275791 24594.8679821  
-660712.277325 -685191.5775 -659990.263765 25676.1051788  
-614620.514135 -637253.748629 -614128.123469 26590.4534689  
-559131.796901 -580021.832077 -558907.289011 27241.9189519  
-493841.932717 -513106.457765 -493960.524683 27616.6876288  
-415766.265347 -433639.55753 -416412.567098 27833.7112152  
-315528.080297 -331969.87496 -317252.257054 26808.7094289  
-210657.334734 -283789.958418 -243852.051743 3290.66686231  
-367787.399131 -434890.004464 -395198.663121 6210.57335982  
-334782.91119 -392862.943595 -357356.75588 11053.0545509  
-207173.466112 -275985.575876 -238057.233821 5011.56284614  
-354779.43578 -405207.158181 -372887.628876 15324.2455959  
-195638.763979 -259223.963184 -223880.594503 8343.02104181  
-358097.34744 -403017.23844 -373480.695106 18824.3576171  
-199867.532273 -257890.700179 -225105.655736 12681.6723234  
-360058.424843 -399072.781145 -372478.106117 21929.7142768  
-204276.873841 -254572.995207 -225402.628798 17397.8880689  
-363735.276584 -395451.182409 -372471.532096 24379.7284515  
-212056.123808 -250870.76284 -227060.737789 22101.2549864  
-370114.194463 -392198.963178 -374068.096175 25315.2462259  
-222634.201123 -243572.079653 -228505.996521 24814.6032918  
-381643.871477 -392621.695444 -379860.34343 25141.3652247  
-233311.14665 -232679.451603 -228327.825571 24915.762415  
-402688.347177 -399631.677018 -393333.986322 23942.3297939  
-241174.677693 -216156.386958 -224071.974434 22847.548234  
-454001.069555 -423510.654255 -430114.029689 20124.6494986  
-219591.084355 -170874.128639 -191810.956875 18509.0982316  
13506.9380377 -34479.8431565 -10276.7235082 3294.85431804  
-527908.462712 -592851.761793 -551868.364013 8780.8732322  
-477314.835928 -541282.800689 -501308.284285 7866.36399716  
-425543.605079 -488517.871197 -449620.754108 7037.46143375  
-373667.591377 -435613.832943 -397851.424007 6279.23846554  
-321568.019367 -382449.322333 -345883.940878 5585.92595879  
-269228.619576 -329019.199878 -293718.80316 4972.17545614  
-216762.046973 -275462.320111 -241489.562711 4457.41240335  
-164403.796916 -222052.422309 -189454.195133 4058.76478545  
-111920.905512 -167616.422621 -136971.303894 3745.77657901  
-61462.2785938 -114009.861967 -85981.348875 3480.93453519  
-9795.05550605 -59356.3938893 -33884.2102037 3332.14746736  
10894.7716953 -36022.4264051 -12312.5508078 107.215205327  
-13212.3269408 -54456.7742487 -33157.8595828 -1793.43468515  
-354019.027174 -422850.548214 -382789.63917 5443.27592883  
-314292.801472 -381615.747232 -342701.027909 4397.18513785  
-276556.331292 -342463.288192 -304667.046547 3405.28600871  
-239685.815582 -304273.607215 -267573.941863 2415.97451185  
-203381.337704 -266599.609506 -231038.404534 1467.62127907  
-167520.182819 -229250.229692 -194908.927906 638.862162402  
-132139.823969 -192270.35999 -159233.464275 17.7602483098  
-97315.9927297 -155813.172849 -124128.426761 -272.002053474  
-63120.903848 -119166.17424 -89320.5292564 -431.100904412  
-30920.2493116 -83077.6496418 -55858.9704872 -468.244433989  
-978.36856326 -49610.259564 -24788.4277824 -184.776682917  
-202876.501051 -275951.110883 -236155.805286 2868.27035931  
-180134.206315 -251192.321638 -212612.615018 1887.32077137  
-158585.007682 -228244.555229 -190599.621642 728.866442375  
-136911.123063 -205071.624653 -168427.112804 -554.71479006  
-115027.457621 -181432.227776 -145930.016134 -1850.44969123  
-93027.3499712 -157376.177022 -123175.756465 -3036.74003381  
-70929.1795654 -132952.266156 -100203.357646 -3999.24520524  
-48571.2461816 -108100.624719 -76922.3165144 -4637.11382182  
-27717.6612082 -84388.6813436 -54966.2772725 -5001.71421541  
-8408.88271134 -59670.3993689 -33358.8482193 -4875.75108728  
6205.10086919 -39027.4033616 -16082.9282213 -3388.98096976  
</DataArray>
<DataArray type="Float64" Name="equivalent_strain" NumberOfComponents="1" format="ascii" >
0.00182625622706  
0.0  
0.00151806687259  
0.000276544940481  
0.0  
0.0  
0.0  
0.0  
0.0  
0.0  
0.0  
0.0  
0.0  
0.0  
0.0  
0.0  
0.0  
0.0  
0.0  
0.0  
0.0  
0.00128637410657  
0.0  
0.0  
6.50914288123e-05  
0.000292411857679  
0.000534332951863  
0.000748915198758  
0.000933077428143  
0.00108501402311  
0.00120225649433  
0.00123771342987  
0.00108043741523  
0.000802878680367  
0.000442061761066  
0.000102851699305  
0.0  
0.0  
0.000165463674379  
0.000972291236795  
0.000757159724473  
0.000248993450378  
2.05768896297e-05  
1.3284665809e-05  
0.000167195760516  
0.000484919899592  
0.0007920904782  
0.00102969920331  
0.00116634937237  
7.50378430067e-05  
0.0  
0.0  
1.87014773865e-05  
0.000188333307947  
0.000481046570879  
0.00074776681179  
0.000949028042325  
0.0010618585748  
0.0  
0.0  
0.0  
1.71856846857e-05  
0.000170816861598  
0.000427849008145  
0.000656223727766  
0.000825824286269  
0.000917811666769  
0.0  
0.0  
0.0  
5.17524312277e-06  
0.00011453311834  
0.000322595297695  
0.000514389520586  
0.000657191229108  
0.000733854433481  
0.0  
0.0  
0.0  
0.0  
4.2906268601e-05  
0.000165503796761  
0.000320672198872  
0.000440881140737  
0.000509444768489  
0.0  
0.0  
0.0  
0.0  
0.0  
3.08867795939e-05  
9.84591298288e-05  
0.000178349978247  
0.000245967850234  
0.0  
0.0  
0.0  
0.0  
0.0  
0.0  
0.0  
9.81269666359e-06  
3.17318457085e-05  
0.0  
0.0  
0.0  
0.0  
0.0  
0.0  
0.0  
0.0  
0.0  
0.0  
0.0  
0.0  
0.0  
0.0  
0.0  
0.0  
0.0  
0.0  
0.00135082303101  
0.00134520641231  
0.000942470342868  
0.00128346040709  
0.000457601508899  
5.08904783184e-05  
0.0  
3.95858841503e-05  
0.000180920958303  
0.000500955084655  
0.000839745941252  
0.00111114218795  
0.0012883326906  
0.00129384623364  
0.00113057001732  
0.000827021351498  
0.000421820110666  
6.09326911341e-05  
0.0  
0.0  
3.94693296331e-05  
0.000580384248614  
0.000147231177805  
7.61075066927e-05  
0.000175260106651  
0.000444306989218  
0.00125112802096  
0.00051127252682  
0.000947594399291  
0.000649785853411  
0.00126529349461  
0.000497277586165  
0.0  
0.0  
3.70772956471e-05  
0.000124615069793  
0.000185327106085  
0.000205950765118  
0.000174470652558  
7.65307570734e-05  
0.0  
0.00131246976591  
0.000851611886385  
0.000341804819754  
0.000997991238671  
0.000172002284751  
0.000707285665025  
0.000175862292105  
0.000523212322431  
0.000181897398617  
0.000349905685628  
0.000174775789182  
0.00015936181632  
0.000171343897536  
4.32941457892e-05  
0.000135604715399  
0.0  
5.58369021128e-05  
0.0  
6.18331732037e-05  
0.000264385357751  
0.0  
0.0009178314578  
0.000783557716921  
0.00065591062387  
0.000532503426859  
0.000410145723206  
0.000288493330841  
0.000169594304827  
5.73278648576e-05  
0.0  
0.0  
0.0  
0.0  
0.0  
0.00107592547802  
0.000917812078205  
0.000777322024898  
0.000647159159701  
0.000516529849009  
0.000380383874753  
0.000238453929227  
9.48028440185e-05  
7.23728640175e-06  
0.0  
0.0  
0.00132750255254  
0.00115997009332  
0.00103421709718  
0.000904560941221  
0.000760518758952  
0.00059813065732  
0.000416513131761  
0.00021842841007  
4.72674754848e-05  
0.0  
0.0  
</DataArray>
</PointData>
<CellData>
</CellData>
<Points>
<DataArray type="Float64" Name="Points" NumberOfComponents="3" format="ascii">
45.0 30.0 0.0
35.0 40.0 0.0
44.0 31.0 0.0
43.0 32.0 0.0
42.0 33.0 0.0
41.0 34.0 0.0
40.0 35.0 0.0
39.0 36.0 0.0
38.0 37.0 0.0
37.0 38.0 0.0
36.0 39.0 0.0
25.0 40.0 0.0
34.0 40.0 0.0
33.0 40.0 0.0
32.0 40.0 0.0
31.0 40.0 0.0
30.0 40.0 0.0
29.0 40.0 0.0
28.0 40.0 0.0
27.0 40.0 0.0
26.0 40.0 0.0
25.0 30.0 0.0
25.0 39.0 0.0
25.0 38.0 0.0
25.0 37.0 0.0
25.0 36.0 0.0
25.0 35.0 0.0
25.0 34.0 0.0
25.0 33.0 0.0
25.0 32.0 0.0
25.0 31.0 0.0
27.0 30.0 0.0
29.0 30.0 0.0
31.0 30.0 0.0
33.0 30.0 0.0
35.0 30.0 0.0
37.0 30.0 0.0
39.0 30.0 0.0
41.0 30.0 0.0
43.0 30.0 0.0
42.1 31.0 0.0
40.2 31.0 0.0
38.3 31.0 0.0
36.4 31.0 0.0
34.5 31.0 0.0
32.6 31.0 0.0
30.7 31.0 0.0
28.8 31.0 0.0
26.9 31.0 0.0
41.2 32.0 0.0
39.4 32.0 0.0
37.6 32.0 0.0
35.8 32.0 0.0
34.0 32.0 0.0
32.2 32.0 0.0
30.4 32.0 0.0
28.6 32.0 0.0
26.8 32.0 0.0
40.3 33.0 0.0
38.6 33.0 0.0
36.9 33.0 0.0
35.2 33.0 0.0
33.5 33.0 0.0
31.8 33.0 0.0
30.1 33.0 0.0
28.4 33.0 0.0
26.7 33.0 0.0
39.4 34.0 0.0
37.8 34.0 0.0
36.2 34.0 0.0
34.6 34.0 0.0
33.0 34.0 0.0
31.4 34.0 0.0
29.8 34.0 0.0
28.2 34.0 0.0
26.6 34.0 0.0
38.5 35.0 0.0
37.0 35.0 0.0
35.5 35.0 0.0
34.0 35.0 0.0
32.5 35.0 0.0
31.0 35.0 0.0
29.5 35.0 0.0
28.0 35.0 0.0
26.5 35.0 0.0
37.6 36.0 0.0
36.2 36.0 0.0
34.8 36.0 0.0
33.4 36.0 0.0
32.0 36.0 0.0
30.6 36.0 0.0
29.2 36.0 0.0
27.8 36.0 0.0
26.4 36.0 0.0
36.7 37.0 0.0
35.4 37.0 0.0
34.1 37.0 0.0
32.8 37.0 0.0
31.5 37.0 0.0
30.2 37.0 0.0
28.9 37.0 0.0
27.6 37.0 0.0
26.3 37.0 0.0
35.8 38.0 0.0
34.6 38.0 0.0
33.4 38.0 0.0
32.2 38.0 0.0
31.0 38.0 0.0
29.8 38.0 0.0
28.6 38.0 0.0
27.4 38.0 0.0
26.2 38.0 0.0
34.9 39.0 0.0
33.8 39.0 0.0
32.7 39.0 0.0
31.6 39.0 0.0
30.5 39.0 0.0
29.4 39.0 0.0
28.3 39.0 0.0
27.2 39.0 0.0
26.1 39.0 0.0
25.0 28.0 0.0
25.0 29.0 0.0
45.0 28.0 0.0
45.0 29.0 0.0
43.0 28.0 0.0
41.0 28.0 0.0
39.0 28.0 0.0
37.0 28.0 0.0
35.0 28.0 0.0
33.0 28.0 0.0
31.0 28.0 0.0
29.0 28.0 0.0
27.0 28.0 0.0
27.0 29.0 0.0
29.0 29.0 0.0
31.0 29.0 0.0
33.0 29.0 0.0
35.0 29.0 0.0
37.0 29.0 0.0
39.0 29.0 0.0
41.0 29.0 0.0
43.0 29.0 0.0
75.0 0.0 0.0
75.0 30.0 0.0
75.0 15.0 0.0
57.8571428571 30.0 0.0
49.2857142857 30.0 0.0
57.8571428571 16.0 0.0
49.2857142857 24.0 0.0
57.8571428571 23.0 0.0
49.2857142857 27.0 0.0
0.0 0.0 0.0
7.5 0.0 0.0
15.0 0.0 0.0
22.5 0.0 0.0
30.0 0.0 0.0
37.5 0.0 0.0
45.0 0.0 0.0
52.5 0.0 0.0
60.0 0.0 0.0
67.5 0.0 0.0
21.4285714286 24.0 0.0
14.2857142857 16.0 0.0
18.6428571429 16.0 0.0
24.2142857143 24.0 0.0
23.0 16.0 0.0
27.0 24.0 0.0
27.3571428571 16.0 0.0
29.7857142857 24.0 0.0
31.7142857143 16.0 0.0
32.5714285714 24.0 0.0
36.0714285714 16.0 0.0
35.3571428571 24.0 0.0
40.4285714286 16.0 0.0
38.1428571429 24.0 0.0
44.7857142857 16.0 0.0
40.9285714286 24.0 0.0
49.1428571429 16.0 0.0
43.7142857143 24.0 0.0
53.5 16.0 0.0
46.5 24.0 0.0
0.0 40.0 0.0
0.0 3.33333333333 0.0
0.0 6.66666666667 0.0
0.0 10.0 0.0
0.0 13.3333333333 0.0
0.0 16.6666666667 0.0
0.0 20.0 0.0
0.0 23.3333333333 0.0
0.0 26.6666666667 0.0
0.0 30.0 0.0
0.0 33.3333333333 0.0
0.0 36.6666666667 0.0
14.2857142857 40.0 0.0
21.4285714286 40.0 0.0
14.2857142857 18.0 0.0
14.2857142857 20.0 0.0
14.2857142857 22.0 0.0
14.2857142857 24.0 0.0
14.2857142857 26.0 0.0
14.2857142857 28.0 0.0
14.2857142857 30.0 0.0
14.2857142857 32.0 0.0
14.2857142857 34.0 0.0
14.2857142857 36.0 0.0
14.2857142857 38.0 0.0
21.4285714286 25.3333333333 0.0
21.4285714286 26.6666666667 0.0
21.4285714286 28.0 0.0
21.4285714286 29.3333333333 0.0
21.4285714286 30.6666666667 0.0
21.4285714286 32.0 0.0
21.4285714286 33.3333333333 0.0
21.4285714286 34.6666666667 0.0
21.4285714286 36.0 0.0
21.4285714286 37.3333333333 0.0
21.4285714286 38.6666666667 0.0
</DataArray>
</Points>
<Cells>
<DataArray type="Int64" Name="connectivity" format="ascii">
0 2 40 39 
2 3 49 40 
3 4 58 49 
4 5 67 58 
5 6 76 67 
6 7 85 76 
7 8 94 85 
8 9 103 94 
9 10 112 103 
10 1 12 112 
39 40 41 38 
40 49 50 41 
49 58 59 50 
58 67 68 59 
67 76 77 68 
76 85 86 77 
85 94 95 86 
94 103 104 95 
103 112 113 104 
112 12 13 113 
38 41 42 37 
41 50 51 42 
50 59 60 51 
59 68 69 60 
68 77 78 69 
77 86 87 78 
86 95 96 87 
95 104 105 96 
104 113 114 105 
113 13 14 114 
37 42 43 36 
42 51 52 43 
51 60 61 52 
60 69 70 61 
69 78 79 70 
78 87 88 79 
87 96 97 88 
96 105 106 97 
105 114 115 106 
114 14 15 115 
36 43 44 35 
43 52 53 44 
52 61 62 53 
61 70 71 62 
70 79 80 71 
79 88 89 80 
88 97 98 89 
97 106 107 98 
106 115 116 107 
115 15 16 116 
35 44 45 34 
44 53 54 45 
53 62 63 54 
62 71 72 63 
71 80 81 72 
80 89 90 81 
89 98 99 90 
98 107 108 99 
107 116 117 108 
116 16 17 117 
34 45 46 33 
45 54 55 46 
54 63 64 55 
63 72 73 64 
72 81 82 73 
81 90 91 82 
90 99 100 91 
99 108 109 100 
108 117 118 109 
117 17 18 118 
33 46 47 32 
46 55 56 47 
55 64 65 56 
64 73 74 65 
73 82 83 74 
82 91 92 83 
91 100 101 92 
100 109 110 101 
109 118 119 110 
118 18 19 119 
32 47 48 31 
47 56 57 48 
56 65 66 57 
65 74 75 66 
74 83 84 75 
83 92 93 84 
92 101 102 93 
101 110 111 102 
110 119 120 111 
119 19 20 120 
31 48 30 21 
48 57 29 30 
57 66 28 29 
66 75 27 28 
75 84 26 27 
84 93 25 26 
93 102 24 25 
102 111 23 24 
111 120 22 23 
120 20 11 22 
121 133 134 122 
133 132 135 134 
132 131 136 135 
131 130 137 136 
130 129 138 137 
129 128 139 138 
128 127 140 139 
127 126 141 140 
126 125 142 141 
125 123 124 142 
122 134 31 21 
134 135 32 31 
135 136 33 32 
136 137 34 33 
137 138 35 34 
138 139 36 35 
139 140 37 36 
140 141 38 37 
141 142 39 38 
142 124 0 39 
143 145 150 148 
145 144 146 150 
148 150 151 149 
150 146 147 151 
149 151 124 123 
151 147 0 124 
152 153 164 163 
153 154 166 164 
154 155 168 166 
155 156 170 168 
156 157 172 170 
157 158 174 172 
158 159 176 174 
159 160 178 176 
160 161 180 178 
161 143 148 180 
163 164 165 162 
164 166 167 165 
166 168 169 167 
168 170 171 169 
170 172 173 171 
172 174 175 173 
174 176 177 175 
176 178 179 177 
178 180 181 179 
180 148 149 181 
162 165 133 121 
165 167 132 133 
167 169 131 132 
169 171 130 131 
171 173 129 130 
173 175 128 129 
175 177 127 128 
177 179 126 127 
179 181 125 126 
181 149 123 125 
152 163 196 183 
163 162 207 196 
162 121 122 207 
183 196 197 184 
196 207 208 197 
207 122 21 208 
184 197 198 185 
197 208 209 198 
208 21 30 209 
185 198 199 186 
198 209 210 199 
209 30 29 210 
186 199 200 187 
199 210 211 200 
210 29 28 211 
187 200 201 188 
200 211 212 201 
211 28 27 212 
188 201 202 189 
201 212 213 202 
212 27 26 213 
189 202 203 190 
202 213 214 203 
213 26 25 214 
190 203 204 191 
203 214 215 204 
214 25 24 215 
191 204 205 192 
204 215 216 205 
215 24 23 216 
192 205 206 193 
205 216 217 206 
216 23 22 217 
193 206 194 182 
206 217 195 194 
217 22 11 195 
</DataArray>
<DataArray type="Int64" Name="offsets" format="ascii">
4
8
12
16
20
24
28
32
36
40
44
48
52
56
60
64
68
72
76
80
84
88
92
96
100
104
108
112
116
120
124
128
132
136
140
144
148
152
156
160
164
168
172
176
180
184
188
192
196
200
204
208
212
216
220
224
228
232
236
240
244
248
252
256
260
264
268
272
276
280
284
288
292
296
300
304
308
312
316
320
324
328
332
336
340
344
348
352
356
360
364
368
372
376
380
384
388
392
396
400
404
408
412
416
420
424
428
432
436
440
444
448
452
456
460
464
468
472
476
480
484
488
492
496
500
504
508
512
516
520
524
528
532
536
540
544
548
552
556
560
564
568
572
576
580
584
588
592
596
600
604
608
612
616
620
624
628
632
636
640
644
648
652
656
660
664
668
672
676
680
684
688
692
696
700
704
708
712
716
720
724
728
732
736
740
744
748
752
756
760
764
768
</DataArray>
<DataArray type="UInt8" Name="types" format="ascii" RangeMin="9" RangeMax="9">
9
9
9
9
9
9
9
9
9
9
9
9
9
9
9
9
9
9
9
9
9
9
9
9
9
9
9
9
9
9
9
9
9
9
9
9
9
9
9
9
9
9
9
9
9
9
9
9
9
9
9
9
9
9
9
9
9
9
9
9
9
9
9
9
9
9
9
9
9
9
9
9
9
9
9
9
9
9
9
9
9
9
9
9
9
9
9
9
9
9
9
9
9
9
9
9
9
9
9
9
9
9
9
9
9
9
9
9
9
9
9
9
9
9
9
9
9
9
9
9
9
9
9
9
9
9
9
9
9
9
9
9
9
9
9
9
9
9
9
9
9
9
9
9
9
9
9
9
9
9
9
9
9
9
9
9
9
9
9
9
9
9
9
9
9
9
9
9
9
9
9
9
9
9
9
9
9
9
9
9
9
9
9
9
9
9
9
9
9
9
9
9
</DataArray>
</Cells>
</Piece>
</UnstructuredGrid>
</VTKFile>
